3456
Lattice="112.11528043735674 0.0 0.0 0.0 69.81464777999113 0.0 0.0 0.0 5.4992120987057795" Properties=species:S:1:pos:R:3 pbc="F F F"
Re      40.28235422       4.55240763       2.80396376
Re      35.83060820       2.40615019       2.69524834
Re      37.45859784       4.70201766       2.76368358
Re      38.65436458       2.25654016       2.73552852
S       40.50518044       1.17092258       3.93373435
S       40.41658326       2.88630560       1.17957435
S       37.15035534       1.00000000       4.10261085
S       37.30868567       3.14135196       1.00000000
S       38.80427675       3.81720586       4.49921210
S       38.96260708       5.95855782       1.39660125
S       35.60778198       5.78763524       1.56547775
S       35.69637915       4.07225223       4.31963775
Re      37.13619222      10.26659763       2.80396376
Re      32.68444620       8.12034019       2.69524834
Re      34.31243584      10.41620766       2.76368358
Re      35.50820258       7.97073016       2.73552852
S       37.35901844       6.88511258       3.93373435
S       37.27042127       8.60049559       1.17957435
S       34.00419334       6.71419000       4.10261085
S       34.16252367       8.85554196       1.00000000
S       35.65811475       9.53139586       4.49921210
S       35.81644508      11.67274782       1.39660125
S       32.46161998      11.50182524       1.56547775
S       32.55021716       9.78644222       4.31963775
Re      33.99003022      15.98078762       2.80396376
Re      29.53828421      13.83453018       2.69524834
Re      31.16627384      16.13039765       2.76368358
Re      32.36204058      13.68492015       2.73552852
S       34.21285644      12.59930257       3.93373435
S       34.12425927      14.31468559       1.17957435
S       30.85803135      12.42837999       4.10261085
S       31.01636167      14.56973195       1.00000000
S       32.51195276      15.24558585       4.49921210
S       32.67028308      17.38693781       1.39660125
S       29.31545798      17.21601523       1.56547775
S       29.40405516      15.50063222       4.31963775
Re      30.84386822      21.69497762       2.80396376
Re      26.39212221      19.54872018       2.69524834
Re      28.02011185      21.84458765       2.76368358
Re      29.21587858      19.39911015       2.73552852
S       31.06669444      18.31349257       3.93373435
S       30.97809727      20.02887559       1.17957435
S       27.71186935      18.14256999       4.10261085
S       27.87019967      20.28392195       1.00000000
S       29.36579076      20.95977585       4.49921210
S       29.52412108      23.10112781       1.39660125
S       26.16929599      22.93020523       1.56547775
S       26.25789316      21.21482221       4.31963775
Re      27.69770622      27.40916762       2.80396376
Re      23.24596021      25.26291017       2.69524834
Re      24.87394985      27.55877765       2.76368358
Re      26.06971658      25.11330015       2.73552852
S       27.92053244      24.02768257       3.93373435
S       27.83193527      25.74306558       1.17957435
S       24.56570735      23.85675998       4.10261085
S       24.72403767      25.99811195       1.00000000
S       26.21962876      26.67396584       4.49921210
S       26.37795908      28.81531781       1.39660125
S       23.02313399      28.64439523       1.56547775
S       23.11173116      26.92901221       4.31963775
Re      24.55154422      33.12335761       2.80396376
Re      20.09979821      30.97710017       2.69524834
Re      21.72778785      33.27296764       2.76368358
Re      22.92355459      30.82749014       2.73552852
S       24.77437045      29.74187256       3.93373435
S       24.68577327      31.45725558       1.17957435
S       21.41954535      29.57094998       4.10261085
S       21.57787568      31.71230194       1.00000000
S       23.07346676      32.38815584       4.49921210
S       23.23179708      34.52950780       1.39660125
S       19.87697199      34.35858522       1.56547775
S       19.96556916      32.64320221       4.31963775
Re      21.40538223      38.83754761       2.80396376
Re      16.95363621      36.69129017       2.69524834
Re      18.58162585      38.98715764       2.76368358
Re      19.77739259      36.54168014       2.73552852
S       21.62820845      35.45606256       3.93373435
S       21.53961127      37.17144557       1.17957435
S       18.27338335      35.28513998       4.10261085
S       18.43171368      37.42649194       1.00000000
S       19.92730476      38.10234584       4.49921210
S       20.08563509      40.24369780       1.39660125
S       16.73080999      40.07277522       1.56547775
S       16.81940716      38.35739220       4.31963775
Re      18.25922023      44.55173761       2.80396376
Re      13.80747421      42.40548016       2.69524834
Re      15.43546385      44.70134763       2.76368358
Re      16.63123059      42.25587013       2.73552852
S       18.48204645      41.17025255       3.93373435
S       18.39344928      42.88563557       1.17957435
S       15.12722135      40.99932997       4.10261085
S       15.28555168      43.14068194       1.00000000
S       16.78114276      43.81653583       4.49921210
S       16.93947309      45.95788780       1.39660125
S       13.58464799      45.78696521       1.56547775
S       13.67324517      44.07158220       4.31963775
Re      15.11305823      50.26592760       2.80396376
Re      10.66131222      48.11967016       2.69524834
Re      12.28930185      50.41553763       2.76368358
Re      13.48506859      47.97006013       2.73552852
S       15.33588445      46.88444255       3.93373435
S       15.24728728      48.59982557       1.17957435
S       11.98105936      46.71351997       4.10261085
S       12.13938968      48.85487193       1.00000000
S       13.63498077      49.53072583       4.49921210
S       13.79331109      51.67207779       1.39660125
S       10.43848599      51.50115521       1.56547775
S       10.52708317      49.78577219       4.31963775
Re      11.96689623      55.98011760       2.80396376
Re       7.51515022      53.83386016       2.69524834
Re       9.14313986      56.12972763       2.76368358
Re      10.33890659      53.68425013       2.73552852
S       12.18972245      52.59863255       3.93373435
S       12.10112528      54.31401556       1.17957435
S        8.83489736      52.42770997       4.10261085
S        8.99322768      54.56906193       1.00000000
S       10.48881877      55.24491583       4.49921210
S       10.64714909      57.38626779       1.39660125
S        7.29232400      57.21534521       1.56547775
S        7.38092117      55.49996219       4.31963775
Re       8.82073423      61.69430759       2.80396376
Re       4.36898822      59.54805015       2.69524834
Re       5.99697786      61.84391762       2.76368358
Re       7.19274460      59.39844012       2.73552852
S        9.04356046      58.31282254       3.93373435
S        8.95496328      60.02820556       1.17957435
S        5.68873536      58.14189996       4.10261085
S        5.84706568      60.28325192       1.00000000
S        7.34265677      60.95910582       4.49921210
S        7.50098709      63.10045778       1.39660125
S        4.14616200      62.92953520       1.56547775
S        4.23475917      61.21415219       4.31963775
Re       5.67457224      67.40849759       2.80396376
Re       1.22282622      65.26224015       2.69524834
Re       2.85081586      67.55810762       2.76368358
Re       4.04658260      65.11263012       2.73552852
S        5.89739846      64.02701254       3.93373435
S        5.80880128      65.74239555       1.17957435
S        2.54257336      63.85608996       4.10261085
S        2.70090369      65.99744192       1.00000000
S        4.19649477      66.67329582       4.49921210
S        4.35482510      68.81464778       1.39660125
S        1.00000000      68.64372520       1.56547775
S        1.08859717      66.92834218       4.31963775
Re      46.70145422       4.55240763       2.80396376
Re      42.24970820       2.40615019       2.69524834
Re      43.87769784       4.70201766       2.76368358
Re      45.07346458       2.25654016       2.73552852
S       46.92428044       1.17092258       3.93373435
S       46.83568326       2.88630560       1.17957435
S       43.56945534       1.00000000       4.10261085
S       43.72778567       3.14135196       1.00000000
S       45.22337675       3.81720586       4.49921210
S       45.38170708       5.95855782       1.39660125
S       42.02688198       5.78763524       1.56547775
S       42.11547915       4.07225223       4.31963775
Re      43.55529222      10.26659763       2.80396376
Re      39.10354620       8.12034019       2.69524834
Re      40.73153584      10.41620766       2.76368358
Re      41.92730258       7.97073016       2.73552852
S       43.77811844       6.88511258       3.93373435
S       43.68952127       8.60049559       1.17957435
S       40.42329334       6.71419000       4.10261085
S       40.58162367       8.85554196       1.00000000
S       42.07721475       9.53139586       4.49921210
S       42.23554508      11.67274782       1.39660125
S       38.88071998      11.50182524       1.56547775
S       38.96931716       9.78644222       4.31963775
Re      40.40913022      15.98078762       2.80396376
Re      35.95738421      13.83453018       2.69524834
Re      37.58537384      16.13039765       2.76368358
Re      38.78114058      13.68492015       2.73552852
S       40.63195644      12.59930257       3.93373435
S       40.54335927      14.31468559       1.17957435
S       37.27713135      12.42837999       4.10261085
S       37.43546167      14.56973195       1.00000000
S       38.93105276      15.24558585       4.49921210
S       39.08938308      17.38693781       1.39660125
S       35.73455798      17.21601523       1.56547775
S       35.82315516      15.50063222       4.31963775
Re      37.26296822      21.69497762       2.80396376
Re      32.81122221      19.54872018       2.69524834
Re      34.43921185      21.84458765       2.76368358
Re      35.63497858      19.39911015       2.73552852
S       37.48579444      18.31349257       3.93373435
S       37.39719727      20.02887559       1.17957435
S       34.13096935      18.14256999       4.10261085
S       34.28929967      20.28392195       1.00000000
S       35.78489076      20.95977585       4.49921210
S       35.94322108      23.10112781       1.39660125
S       32.58839599      22.93020523       1.56547775
S       32.67699316      21.21482221       4.31963775
Re      34.11680622      27.40916762       2.80396376
Re      29.66506021      25.26291017       2.69524834
Re      31.29304985      27.55877765       2.76368358
Re      32.48881658      25.11330015       2.73552852
S       34.33963244      24.02768257       3.93373435
S       34.25103527      25.74306558       1.17957435
S       30.98480735      23.85675998       4.10261085
S       31.14313767      25.99811195       1.00000000
S       32.63872876      26.67396584       4.49921210
S       32.79705908      28.81531781       1.39660125
S       29.44223399      28.64439523       1.56547775
S       29.53083116      26.92901221       4.31963775
Re      30.97064422      33.12335761       2.80396376
Re      26.51889821      30.97710017       2.69524834
Re      28.14688785      33.27296764       2.76368358
Re      29.34265459      30.82749014       2.73552852
S       31.19347045      29.74187256       3.93373435
S       31.10487327      31.45725558       1.17957435
S       27.83864535      29.57094998       4.10261085
S       27.99697568      31.71230194       1.00000000
S       29.49256676      32.38815584       4.49921210
S       29.65089708      34.52950780       1.39660125
S       26.29607199      34.35858522       1.56547775
S       26.38466916      32.64320221       4.31963775
Re      27.82448223      38.83754761       2.80396376
Re      23.37273621      36.69129017       2.69524834
Re      25.00072585      38.98715764       2.76368358
Re      26.19649259      36.54168014       2.73552852
S       28.04730845      35.45606256       3.93373435
S       27.95871127      37.17144557       1.17957435
S       24.69248335      35.28513998       4.10261085
S       24.85081368      37.42649194       1.00000000
S       26.34640476      38.10234584       4.49921210
S       26.50473509      40.24369780       1.39660125
S       23.14990999      40.07277522       1.56547775
S       23.23850716      38.35739220       4.31963775
Re      24.67832023      44.55173761       2.80396376
Re      20.22657421      42.40548016       2.69524834
Re      21.85456385      44.70134763       2.76368358
Re      23.05033059      42.25587013       2.73552852
S       24.90114645      41.17025255       3.93373435
S       24.81254928      42.88563557       1.17957435
S       21.54632135      40.99932997       4.10261085
S       21.70465168      43.14068194       1.00000000
S       23.20024276      43.81653583       4.49921210
S       23.35857309      45.95788780       1.39660125
S       20.00374799      45.78696521       1.56547775
S       20.09234517      44.07158220       4.31963775
Re      21.53215823      50.26592760       2.80396376
Re      17.08041222      48.11967016       2.69524834
Re      18.70840185      50.41553763       2.76368358
Re      19.90416859      47.97006013       2.73552852
S       21.75498445      46.88444255       3.93373435
S       21.66638728      48.59982557       1.17957435
S       18.40015936      46.71351997       4.10261085
S       18.55848968      48.85487193       1.00000000
S       20.05408077      49.53072583       4.49921210
S       20.21241109      51.67207779       1.39660125
S       16.85758599      51.50115521       1.56547775
S       16.94618317      49.78577219       4.31963775
Re      18.38599623      55.98011760       2.80396376
Re      13.93425022      53.83386016       2.69524834
Re      15.56223986      56.12972763       2.76368358
Re      16.75800659      53.68425013       2.73552852
S       18.60882245      52.59863255       3.93373435
S       18.52022528      54.31401556       1.17957435
S       15.25399736      52.42770997       4.10261085
S       15.41232768      54.56906193       1.00000000
S       16.90791877      55.24491583       4.49921210
S       17.06624909      57.38626779       1.39660125
S       13.71142400      57.21534521       1.56547775
S       13.80002117      55.49996219       4.31963775
Re      15.23983423      61.69430759       2.80396376
Re      10.78808822      59.54805015       2.69524834
Re      12.41607786      61.84391762       2.76368358
Re      13.61184460      59.39844012       2.73552852
S       15.46266046      58.31282254       3.93373435
S       15.37406328      60.02820556       1.17957435
S       12.10783536      58.14189996       4.10261085
S       12.26616568      60.28325192       1.00000000
S       13.76175677      60.95910582       4.49921210
S       13.92008709      63.10045778       1.39660125
S       10.56526200      62.92953520       1.56547775
S       10.65385917      61.21415219       4.31963775
Re      12.09367224      67.40849759       2.80396376
Re       7.64192622      65.26224015       2.69524834
Re       9.26991586      67.55810762       2.76368358
Re      10.46568260      65.11263012       2.73552852
S       12.31649846      64.02701254       3.93373435
S       12.22790128      65.74239555       1.17957435
S        8.96167336      63.85608996       4.10261085
S        9.12000369      65.99744192       1.00000000
S       10.61559477      66.67329582       4.49921210
S       10.77392510      68.81464778       1.39660125
S        7.41910000      68.64372520       1.56547775
S        7.50769717      66.92834218       4.31963775
Re      53.12055422       4.55240763       2.80396376
Re      48.66880820       2.40615019       2.69524834
Re      50.29679784       4.70201766       2.76368358
Re      51.49256458       2.25654016       2.73552852
S       53.34338044       1.17092258       3.93373435
S       53.25478326       2.88630560       1.17957435
S       49.98855534       1.00000000       4.10261085
S       50.14688567       3.14135196       1.00000000
S       51.64247675       3.81720586       4.49921210
S       51.80080708       5.95855782       1.39660125
S       48.44598198       5.78763524       1.56547775
S       48.53457915       4.07225223       4.31963775
Re      49.97439222      10.26659763       2.80396376
Re      45.52264620       8.12034019       2.69524834
Re      47.15063584      10.41620766       2.76368358
Re      48.34640258       7.97073016       2.73552852
S       50.19721844       6.88511258       3.93373435
S       50.10862127       8.60049559       1.17957435
S       46.84239334       6.71419000       4.10261085
S       47.00072367       8.85554196       1.00000000
S       48.49631475       9.53139586       4.49921210
S       48.65464508      11.67274782       1.39660125
S       45.29981998      11.50182524       1.56547775
S       45.38841716       9.78644222       4.31963775
Re      46.82823022      15.98078762       2.80396376
Re      42.37648421      13.83453018       2.69524834
Re      44.00447384      16.13039765       2.76368358
Re      45.20024058      13.68492015       2.73552852
S       47.05105644      12.59930257       3.93373435
S       46.96245927      14.31468559       1.17957435
S       43.69623135      12.42837999       4.10261085
S       43.85456167      14.56973195       1.00000000
S       45.35015276      15.24558585       4.49921210
S       45.50848308      17.38693781       1.39660125
S       42.15365798      17.21601523       1.56547775
S       42.24225516      15.50063222       4.31963775
Re      43.68206822      21.69497762       2.80396376
Re      39.23032221      19.54872018       2.69524834
Re      40.85831185      21.84458765       2.76368358
Re      42.05407858      19.39911015       2.73552852
S       43.90489444      18.31349257       3.93373435
S       43.81629727      20.02887559       1.17957435
S       40.55006935      18.14256999       4.10261085
S       40.70839967      20.28392195       1.00000000
S       42.20399076      20.95977585       4.49921210
S       42.36232108      23.10112781       1.39660125
S       39.00749599      22.93020523       1.56547775
S       39.09609316      21.21482221       4.31963775
Re      40.53590622      27.40916762       2.80396376
Re      36.08416021      25.26291017       2.69524834
Re      37.71214985      27.55877765       2.76368358
Re      38.90791658      25.11330015       2.73552852
S       40.75873244      24.02768257       3.93373435
S       40.67013527      25.74306558       1.17957435
S       37.40390735      23.85675998       4.10261085
S       37.56223767      25.99811195       1.00000000
S       39.05782876      26.67396584       4.49921210
S       39.21615908      28.81531781       1.39660125
S       35.86133399      28.64439523       1.56547775
S       35.94993116      26.92901221       4.31963775
Re      37.38974422      33.12335761       2.80396376
Re      32.93799821      30.97710017       2.69524834
Re      34.56598785      33.27296764       2.76368358
Re      35.76175459      30.82749014       2.73552852
S       37.61257045      29.74187256       3.93373435
S       37.52397327      31.45725558       1.17957435
S       34.25774535      29.57094998       4.10261085
S       34.41607568      31.71230194       1.00000000
S       35.91166676      32.38815584       4.49921210
S       36.06999708      34.52950780       1.39660125
S       32.71517199      34.35858522       1.56547775
S       32.80376916      32.64320221       4.31963775
Re      34.24358223      38.83754761       2.80396376
Re      29.79183621      36.69129017       2.69524834
Re      31.41982585      38.98715764       2.76368358
Re      32.61559259      36.54168014       2.73552852
S       34.46640845      35.45606256       3.93373435
S       34.37781127      37.17144557       1.17957435
S       31.11158335      35.28513998       4.10261085
S       31.26991368      37.42649194       1.00000000
S       32.76550476      38.10234584       4.49921210
S       32.92383509      40.24369780       1.39660125
S       29.56900999      40.07277522       1.56547775
S       29.65760716      38.35739220       4.31963775
Re      31.09742023      44.55173761       2.80396376
Re      26.64567421      42.40548016       2.69524834
Re      28.27366385      44.70134763       2.76368358
Re      29.46943059      42.25587013       2.73552852
S       31.32024645      41.17025255       3.93373435
S       31.23164928      42.88563557       1.17957435
S       27.96542135      40.99932997       4.10261085
S       28.12375168      43.14068194       1.00000000
S       29.61934276      43.81653583       4.49921210
S       29.77767309      45.95788780       1.39660125
S       26.42284799      45.78696521       1.56547775
S       26.51144517      44.07158220       4.31963775
Re      27.95125823      50.26592760       2.80396376
Re      23.49951222      48.11967016       2.69524834
Re      25.12750185      50.41553763       2.76368358
Re      26.32326859      47.97006013       2.73552852
S       28.17408445      46.88444255       3.93373435
S       28.08548728      48.59982557       1.17957435
S       24.81925936      46.71351997       4.10261085
S       24.97758968      48.85487193       1.00000000
S       26.47318077      49.53072583       4.49921210
S       26.63151109      51.67207779       1.39660125
S       23.27668599      51.50115521       1.56547775
S       23.36528317      49.78577219       4.31963775
Re      24.80509623      55.98011760       2.80396376
Re      20.35335022      53.83386016       2.69524834
Re      21.98133986      56.12972763       2.76368358
Re      23.17710659      53.68425013       2.73552852
S       25.02792245      52.59863255       3.93373435
S       24.93932528      54.31401556       1.17957435
S       21.67309736      52.42770997       4.10261085
S       21.83142768      54.56906193       1.00000000
S       23.32701877      55.24491583       4.49921210
S       23.48534909      57.38626779       1.39660125
S       20.13052400      57.21534521       1.56547775
S       20.21912117      55.49996219       4.31963775
Re      21.65893423      61.69430759       2.80396376
Re      17.20718822      59.54805015       2.69524834
Re      18.83517786      61.84391762       2.76368358
Re      20.03094460      59.39844012       2.73552852
S       21.88176046      58.31282254       3.93373435
S       21.79316328      60.02820556       1.17957435
S       18.52693536      58.14189996       4.10261085
S       18.68526568      60.28325192       1.00000000
S       20.18085677      60.95910582       4.49921210
S       20.33918709      63.10045778       1.39660125
S       16.98436200      62.92953520       1.56547775
S       17.07295917      61.21415219       4.31963775
Re      18.51277224      67.40849759       2.80396376
Re      14.06102622      65.26224015       2.69524834
Re      15.68901586      67.55810762       2.76368358
Re      16.88478260      65.11263012       2.73552852
S       18.73559846      64.02701254       3.93373435
S       18.64700128      65.74239555       1.17957435
S       15.38077336      63.85608996       4.10261085
S       15.53910369      65.99744192       1.00000000
S       17.03469477      66.67329582       4.49921210
S       17.19302510      68.81464778       1.39660125
S       13.83820000      68.64372520       1.56547775
S       13.92679717      66.92834218       4.31963775
Re      59.53965422       4.55240763       2.80396376
Re      55.08790820       2.40615019       2.69524834
Re      56.71589784       4.70201766       2.76368358
Re      57.91166458       2.25654016       2.73552852
S       59.76248044       1.17092258       3.93373435
S       59.67388326       2.88630560       1.17957435
S       56.40765534       1.00000000       4.10261085
S       56.56598567       3.14135196       1.00000000
S       58.06157675       3.81720586       4.49921210
S       58.21990708       5.95855782       1.39660125
S       54.86508198       5.78763524       1.56547775
S       54.95367915       4.07225223       4.31963775
Re      56.39349222      10.26659763       2.80396376
Re      51.94174620       8.12034019       2.69524834
Re      53.56973584      10.41620766       2.76368358
Re      54.76550258       7.97073016       2.73552852
S       56.61631844       6.88511258       3.93373435
S       56.52772127       8.60049559       1.17957435
S       53.26149334       6.71419000       4.10261085
S       53.41982367       8.85554196       1.00000000
S       54.91541475       9.53139586       4.49921210
S       55.07374508      11.67274782       1.39660125
S       51.71891998      11.50182524       1.56547775
S       51.80751716       9.78644222       4.31963775
Re      53.24733022      15.98078762       2.80396376
Re      48.79558421      13.83453018       2.69524834
Re      50.42357384      16.13039765       2.76368358
Re      51.61934058      13.68492015       2.73552852
S       53.47015644      12.59930257       3.93373435
S       53.38155927      14.31468559       1.17957435
S       50.11533135      12.42837999       4.10261085
S       50.27366167      14.56973195       1.00000000
S       51.76925276      15.24558585       4.49921210
S       51.92758308      17.38693781       1.39660125
S       48.57275798      17.21601523       1.56547775
S       48.66135516      15.50063222       4.31963775
Re      50.10116822      21.69497762       2.80396376
Re      45.64942221      19.54872018       2.69524834
Re      47.27741185      21.84458765       2.76368358
Re      48.47317858      19.39911015       2.73552852
S       50.32399444      18.31349257       3.93373435
S       50.23539727      20.02887559       1.17957435
S       46.96916935      18.14256999       4.10261085
S       47.12749967      20.28392195       1.00000000
S       48.62309076      20.95977585       4.49921210
S       48.78142108      23.10112781       1.39660125
S       45.42659599      22.93020523       1.56547775
S       45.51519316      21.21482221       4.31963775
Re      46.95500622      27.40916762       2.80396376
Re      42.50326021      25.26291017       2.69524834
Re      44.13124985      27.55877765       2.76368358
Re      45.32701658      25.11330015       2.73552852
S       47.17783244      24.02768257       3.93373435
S       47.08923527      25.74306558       1.17957435
S       43.82300735      23.85675998       4.10261085
S       43.98133767      25.99811195       1.00000000
S       45.47692876      26.67396584       4.49921210
S       45.63525908      28.81531781       1.39660125
S       42.28043399      28.64439523       1.56547775
S       42.36903116      26.92901221       4.31963775
Re      43.80884422      33.12335761       2.80396376
Re      39.35709821      30.97710017       2.69524834
Re      40.98508785      33.27296764       2.76368358
Re      42.18085459      30.82749014       2.73552852
S       44.03167045      29.74187256       3.93373435
S       43.94307327      31.45725558       1.17957435
S       40.67684535      29.57094998       4.10261085
S       40.83517568      31.71230194       1.00000000
S       42.33076676      32.38815584       4.49921210
S       42.48909708      34.52950780       1.39660125
S       39.13427199      34.35858522       1.56547775
S       39.22286916      32.64320221       4.31963775
Re      40.66268223      38.83754761       2.80396376
Re      36.21093621      36.69129017       2.69524834
Re      37.83892585      38.98715764       2.76368358
Re      39.03469259      36.54168014       2.73552852
S       40.88550845      35.45606256       3.93373435
S       40.79691127      37.17144557       1.17957435
S       37.53068335      35.28513998       4.10261085
S       37.68901368      37.42649194       1.00000000
S       39.18460476      38.10234584       4.49921210
S       39.34293509      40.24369780       1.39660125
S       35.98810999      40.07277522       1.56547775
S       36.07670716      38.35739220       4.31963775
Re      37.51652023      44.55173761       2.80396376
Re      33.06477421      42.40548016       2.69524834
Re      34.69276385      44.70134763       2.76368358
Re      35.88853059      42.25587013       2.73552852
S       37.73934645      41.17025255       3.93373435
S       37.65074928      42.88563557       1.17957435
S       34.38452135      40.99932997       4.10261085
S       34.54285168      43.14068194       1.00000000
S       36.03844276      43.81653583       4.49921210
S       36.19677309      45.95788780       1.39660125
S       32.84194799      45.78696521       1.56547775
S       32.93054517      44.07158220       4.31963775
Re      34.37035823      50.26592760       2.80396376
Re      29.91861222      48.11967016       2.69524834
Re      31.54660185      50.41553763       2.76368358
Re      32.74236859      47.97006013       2.73552852
S       34.59318445      46.88444255       3.93373435
S       34.50458728      48.59982557       1.17957435
S       31.23835936      46.71351997       4.10261085
S       31.39668968      48.85487193       1.00000000
S       32.89228077      49.53072583       4.49921210
S       33.05061109      51.67207779       1.39660125
S       29.69578599      51.50115521       1.56547775
S       29.78438317      49.78577219       4.31963775
Re      31.22419623      55.98011760       2.80396376
Re      26.77245022      53.83386016       2.69524834
Re      28.40043986      56.12972763       2.76368358
Re      29.59620659      53.68425013       2.73552852
S       31.44702245      52.59863255       3.93373435
S       31.35842528      54.31401556       1.17957435
S       28.09219736      52.42770997       4.10261085
S       28.25052768      54.56906193       1.00000000
S       29.74611877      55.24491583       4.49921210
S       29.90444909      57.38626779       1.39660125
S       26.54962400      57.21534521       1.56547775
S       26.63822117      55.49996219       4.31963775
Re      28.07803423      61.69430759       2.80396376
Re      23.62628822      59.54805015       2.69524834
Re      25.25427786      61.84391762       2.76368358
Re      26.45004460      59.39844012       2.73552852
S       28.30086046      58.31282254       3.93373435
S       28.21226328      60.02820556       1.17957435
S       24.94603536      58.14189996       4.10261085
S       25.10436568      60.28325192       1.00000000
S       26.59995677      60.95910582       4.49921210
S       26.75828709      63.10045778       1.39660125
S       23.40346200      62.92953520       1.56547775
S       23.49205917      61.21415219       4.31963775
Re      24.93187224      67.40849759       2.80396376
Re      20.48012622      65.26224015       2.69524834
Re      22.10811586      67.55810762       2.76368358
Re      23.30388260      65.11263012       2.73552852
S       25.15469846      64.02701254       3.93373435
S       25.06610128      65.74239555       1.17957435
S       21.79987336      63.85608996       4.10261085
S       21.95820369      65.99744192       1.00000000
S       23.45379477      66.67329582       4.49921210
S       23.61212510      68.81464778       1.39660125
S       20.25730000      68.64372520       1.56547775
S       20.34589717      66.92834218       4.31963775
Re      65.95875422       4.55240763       2.80396376
Re      61.50700820       2.40615019       2.69524834
Re      63.13499784       4.70201766       2.76368358
Re      64.33076458       2.25654016       2.73552852
S       66.18158044       1.17092258       3.93373435
S       66.09298326       2.88630560       1.17957435
S       62.82675534       1.00000000       4.10261085
S       62.98508567       3.14135196       1.00000000
S       64.48067675       3.81720586       4.49921210
S       64.63900708       5.95855782       1.39660125
S       61.28418198       5.78763524       1.56547775
S       61.37277915       4.07225223       4.31963775
Re      62.81259222      10.26659763       2.80396376
Re      58.36084620       8.12034019       2.69524834
Re      59.98883584      10.41620766       2.76368358
Re      61.18460258       7.97073016       2.73552852
S       63.03541844       6.88511258       3.93373435
S       62.94682127       8.60049559       1.17957435
S       59.68059334       6.71419000       4.10261085
S       59.83892367       8.85554196       1.00000000
S       61.33451475       9.53139586       4.49921210
S       61.49284508      11.67274782       1.39660125
S       58.13801998      11.50182524       1.56547775
S       58.22661716       9.78644222       4.31963775
Re      59.66643022      15.98078762       2.80396376
Re      55.21468421      13.83453018       2.69524834
Re      56.84267384      16.13039765       2.76368358
Re      58.03844058      13.68492015       2.73552852
S       59.88925644      12.59930257       3.93373435
S       59.80065927      14.31468559       1.17957435
S       56.53443135      12.42837999       4.10261085
S       56.69276167      14.56973195       1.00000000
S       58.18835276      15.24558585       4.49921210
S       58.34668308      17.38693781       1.39660125
S       54.99185798      17.21601523       1.56547775
S       55.08045516      15.50063222       4.31963775
Re      56.52026822      21.69497762       2.80396376
Re      52.06852221      19.54872018       2.69524834
Re      53.69651185      21.84458765       2.76368358
Re      54.89227858      19.39911015       2.73552852
S       56.74309444      18.31349257       3.93373435
S       56.65449727      20.02887559       1.17957435
S       53.38826935      18.14256999       4.10261085
S       53.54659967      20.28392195       1.00000000
S       55.04219076      20.95977585       4.49921210
S       55.20052108      23.10112781       1.39660125
S       51.84569599      22.93020523       1.56547775
S       51.93429316      21.21482221       4.31963775
Re      53.37410622      27.40916762       2.80396376
Re      48.92236021      25.26291017       2.69524834
Re      50.55034985      27.55877765       2.76368358
Re      51.74611658      25.11330015       2.73552852
S       53.59693244      24.02768257       3.93373435
S       53.50833527      25.74306558       1.17957435
S       50.24210735      23.85675998       4.10261085
S       50.40043767      25.99811195       1.00000000
S       51.89602876      26.67396584       4.49921210
S       52.05435908      28.81531781       1.39660125
S       48.69953399      28.64439523       1.56547775
S       48.78813116      26.92901221       4.31963775
Re      50.22794422      33.12335761       2.80396376
Re      45.77619821      30.97710017       2.69524834
Re      47.40418785      33.27296764       2.76368358
Re      48.59995459      30.82749014       2.73552852
S       50.45077045      29.74187256       3.93373435
S       50.36217327      31.45725558       1.17957435
S       47.09594535      29.57094998       4.10261085
S       47.25427568      31.71230194       1.00000000
S       48.74986676      32.38815584       4.49921210
S       48.90819708      34.52950780       1.39660125
S       45.55337199      34.35858522       1.56547775
S       45.64196916      32.64320221       4.31963775
Re      47.08178223      38.83754761       2.80396376
Re      42.63003621      36.69129017       2.69524834
Re      44.25802585      38.98715764       2.76368358
Re      45.45379259      36.54168014       2.73552852
S       47.30460845      35.45606256       3.93373435
S       47.21601127      37.17144557       1.17957435
S       43.94978335      35.28513998       4.10261085
S       44.10811368      37.42649194       1.00000000
S       45.60370476      38.10234584       4.49921210
S       45.76203509      40.24369780       1.39660125
S       42.40720999      40.07277522       1.56547775
S       42.49580716      38.35739220       4.31963775
Re      43.93562023      44.55173761       2.80396376
Re      39.48387421      42.40548016       2.69524834
Re      41.11186385      44.70134763       2.76368358
Re      42.30763059      42.25587013       2.73552852
S       44.15844645      41.17025255       3.93373435
S       44.06984928      42.88563557       1.17957435
S       40.80362135      40.99932997       4.10261085
S       40.96195168      43.14068194       1.00000000
S       42.45754276      43.81653583       4.49921210
S       42.61587309      45.95788780       1.39660125
S       39.26104799      45.78696521       1.56547775
S       39.34964517      44.07158220       4.31963775
Re      40.78945823      50.26592760       2.80396376
Re      36.33771222      48.11967016       2.69524834
Re      37.96570185      50.41553763       2.76368358
Re      39.16146859      47.97006013       2.73552852
S       41.01228445      46.88444255       3.93373435
S       40.92368728      48.59982557       1.17957435
S       37.65745936      46.71351997       4.10261085
S       37.81578968      48.85487193       1.00000000
S       39.31138077      49.53072583       4.49921210
S       39.46971109      51.67207779       1.39660125
S       36.11488599      51.50115521       1.56547775
S       36.20348317      49.78577219       4.31963775
Re      37.64329623      55.98011760       2.80396376
Re      33.19155022      53.83386016       2.69524834
Re      34.81953986      56.12972763       2.76368358
Re      36.01530659      53.68425013       2.73552852
S       37.86612245      52.59863255       3.93373435
S       37.77752528      54.31401556       1.17957435
S       34.51129736      52.42770997       4.10261085
S       34.66962768      54.56906193       1.00000000
S       36.16521877      55.24491583       4.49921210
S       36.32354909      57.38626779       1.39660125
S       32.96872400      57.21534521       1.56547775
S       33.05732117      55.49996219       4.31963775
Re      34.49713423      61.69430759       2.80396376
Re      30.04538822      59.54805015       2.69524834
Re      31.67337786      61.84391762       2.76368358
Re      32.86914460      59.39844012       2.73552852
S       34.71996046      58.31282254       3.93373435
S       34.63136328      60.02820556       1.17957435
S       31.36513536      58.14189996       4.10261085
S       31.52346568      60.28325192       1.00000000
S       33.01905677      60.95910582       4.49921210
S       33.17738709      63.10045778       1.39660125
S       29.82256200      62.92953520       1.56547775
S       29.91115917      61.21415219       4.31963775
Re      31.35097224      67.40849759       2.80396376
Re      26.89922622      65.26224015       2.69524834
Re      28.52721586      67.55810762       2.76368358
Re      29.72298260      65.11263012       2.73552852
S       31.57379846      64.02701254       3.93373435
S       31.48520128      65.74239555       1.17957435
S       28.21897336      63.85608996       4.10261085
S       28.37730369      65.99744192       1.00000000
S       29.87289477      66.67329582       4.49921210
S       30.03122510      68.81464778       1.39660125
S       26.67640000      68.64372520       1.56547775
S       26.76499717      66.92834218       4.31963775
Re      72.37785422       4.55240763       2.80396376
Re      67.92610820       2.40615019       2.69524834
Re      69.55409784       4.70201766       2.76368358
Re      70.74986458       2.25654016       2.73552852
S       72.60068044       1.17092258       3.93373435
S       72.51208326       2.88630560       1.17957435
S       69.24585534       1.00000000       4.10261085
S       69.40418567       3.14135196       1.00000000
S       70.89977675       3.81720586       4.49921210
S       71.05810708       5.95855782       1.39660125
S       67.70328198       5.78763524       1.56547775
S       67.79187915       4.07225223       4.31963775
Re      69.23169222      10.26659763       2.80396376
Re      64.77994620       8.12034019       2.69524834
Re      66.40793584      10.41620766       2.76368358
Re      67.60370258       7.97073016       2.73552852
S       69.45451844       6.88511258       3.93373435
S       69.36592127       8.60049559       1.17957435
S       66.09969334       6.71419000       4.10261085
S       66.25802367       8.85554196       1.00000000
S       67.75361475       9.53139586       4.49921210
S       67.91194508      11.67274782       1.39660125
S       64.55711998      11.50182524       1.56547775
S       64.64571716       9.78644222       4.31963775
Re      66.08553022      15.98078762       2.80396376
Re      61.63378421      13.83453018       2.69524834
Re      63.26177384      16.13039765       2.76368358
Re      64.45754058      13.68492015       2.73552852
S       66.30835644      12.59930257       3.93373435
S       66.21975927      14.31468559       1.17957435
S       62.95353135      12.42837999       4.10261085
S       63.11186167      14.56973195       1.00000000
S       64.60745276      15.24558585       4.49921210
S       64.76578308      17.38693781       1.39660125
S       61.41095798      17.21601523       1.56547775
S       61.49955516      15.50063222       4.31963775
Re      62.93936822      21.69497762       2.80396376
Re      58.48762221      19.54872018       2.69524834
Re      60.11561185      21.84458765       2.76368358
Re      61.31137858      19.39911015       2.73552852
S       63.16219444      18.31349257       3.93373435
S       63.07359727      20.02887559       1.17957435
S       59.80736935      18.14256999       4.10261085
S       59.96569967      20.28392195       1.00000000
S       61.46129076      20.95977585       4.49921210
S       61.61962108      23.10112781       1.39660125
S       58.26479599      22.93020523       1.56547775
S       58.35339316      21.21482221       4.31963775
Re      59.79320622      27.40916762       2.80396376
Re      55.34146021      25.26291017       2.69524834
Re      56.96944985      27.55877765       2.76368358
Re      58.16521658      25.11330015       2.73552852
S       60.01603244      24.02768257       3.93373435
S       59.92743527      25.74306558       1.17957435
S       56.66120735      23.85675998       4.10261085
S       56.81953767      25.99811195       1.00000000
S       58.31512876      26.67396584       4.49921210
S       58.47345908      28.81531781       1.39660125
S       55.11863399      28.64439523       1.56547775
S       55.20723116      26.92901221       4.31963775
Re      56.64704422      33.12335761       2.80396376
Re      52.19529821      30.97710017       2.69524834
Re      53.82328785      33.27296764       2.76368358
Re      55.01905459      30.82749014       2.73552852
S       56.86987045      29.74187256       3.93373435
S       56.78127327      31.45725558       1.17957435
S       53.51504535      29.57094998       4.10261085
S       53.67337568      31.71230194       1.00000000
S       55.16896676      32.38815584       4.49921210
S       55.32729708      34.52950780       1.39660125
S       51.97247199      34.35858522       1.56547775
S       52.06106916      32.64320221       4.31963775
Re      53.50088223      38.83754761       2.80396376
Re      49.04913621      36.69129017       2.69524834
Re      50.67712585      38.98715764       2.76368358
Re      51.87289259      36.54168014       2.73552852
S       53.72370845      35.45606256       3.93373435
S       53.63511127      37.17144557       1.17957435
S       50.36888335      35.28513998       4.10261085
S       50.52721368      37.42649194       1.00000000
S       52.02280476      38.10234584       4.49921210
S       52.18113509      40.24369780       1.39660125
S       48.82630999      40.07277522       1.56547775
S       48.91490716      38.35739220       4.31963775
Re      50.35472023      44.55173761       2.80396376
Re      45.90297421      42.40548016       2.69524834
Re      47.53096385      44.70134763       2.76368358
Re      48.72673059      42.25587013       2.73552852
S       50.57754645      41.17025255       3.93373435
S       50.48894928      42.88563557       1.17957435
S       47.22272135      40.99932997       4.10261085
S       47.38105168      43.14068194       1.00000000
S       48.87664276      43.81653583       4.49921210
S       49.03497309      45.95788780       1.39660125
S       45.68014799      45.78696521       1.56547775
S       45.76874517      44.07158220       4.31963775
Re      47.20855823      50.26592760       2.80396376
Re      42.75681222      48.11967016       2.69524834
Re      44.38480185      50.41553763       2.76368358
Re      45.58056859      47.97006013       2.73552852
S       47.43138445      46.88444255       3.93373435
S       47.34278728      48.59982557       1.17957435
S       44.07655936      46.71351997       4.10261085
S       44.23488968      48.85487193       1.00000000
S       45.73048077      49.53072583       4.49921210
S       45.88881109      51.67207779       1.39660125
S       42.53398599      51.50115521       1.56547775
S       42.62258317      49.78577219       4.31963775
Re      44.06239623      55.98011760       2.80396376
Re      39.61065022      53.83386016       2.69524834
Re      41.23863986      56.12972763       2.76368358
Re      42.43440659      53.68425013       2.73552852
S       44.28522245      52.59863255       3.93373435
S       44.19662528      54.31401556       1.17957435
S       40.93039736      52.42770997       4.10261085
S       41.08872768      54.56906193       1.00000000
S       42.58431877      55.24491583       4.49921210
S       42.74264909      57.38626779       1.39660125
S       39.38782400      57.21534521       1.56547775
S       39.47642117      55.49996219       4.31963775
Re      40.91623423      61.69430759       2.80396376
Re      36.46448822      59.54805015       2.69524834
Re      38.09247786      61.84391762       2.76368358
Re      39.28824460      59.39844012       2.73552852
S       41.13906046      58.31282254       3.93373435
S       41.05046328      60.02820556       1.17957435
S       37.78423536      58.14189996       4.10261085
S       37.94256568      60.28325192       1.00000000
S       39.43815677      60.95910582       4.49921210
S       39.59648709      63.10045778       1.39660125
S       36.24166200      62.92953520       1.56547775
S       36.33025917      61.21415219       4.31963775
Re      37.77007224      67.40849759       2.80396376
Re      33.31832622      65.26224015       2.69524834
Re      34.94631586      67.55810762       2.76368358
Re      36.14208260      65.11263012       2.73552852
S       37.99289846      64.02701254       3.93373435
S       37.90430128      65.74239555       1.17957435
S       34.63807336      63.85608996       4.10261085
S       34.79640369      65.99744192       1.00000000
S       36.29199477      66.67329582       4.49921210
S       36.45032510      68.81464778       1.39660125
S       33.09550000      68.64372520       1.56547775
S       33.18409717      66.92834218       4.31963775
Re      78.79695422       4.55240763       2.80396376
Re      74.34520820       2.40615019       2.69524834
Re      75.97319784       4.70201766       2.76368358
Re      77.16896458       2.25654016       2.73552852
S       79.01978044       1.17092258       3.93373435
S       78.93118326       2.88630560       1.17957435
S       75.66495534       1.00000000       4.10261085
S       75.82328567       3.14135196       1.00000000
S       77.31887675       3.81720586       4.49921210
S       77.47720708       5.95855782       1.39660125
S       74.12238198       5.78763524       1.56547775
S       74.21097915       4.07225223       4.31963775
Re      75.65079222      10.26659763       2.80396376
Re      71.19904620       8.12034019       2.69524834
Re      72.82703584      10.41620766       2.76368358
Re      74.02280258       7.97073016       2.73552852
S       75.87361844       6.88511258       3.93373435
S       75.78502127       8.60049559       1.17957435
S       72.51879334       6.71419000       4.10261085
S       72.67712367       8.85554196       1.00000000
S       74.17271475       9.53139586       4.49921210
S       74.33104508      11.67274782       1.39660125
S       70.97621998      11.50182524       1.56547775
S       71.06481716       9.78644222       4.31963775
Re      72.50463022      15.98078762       2.80396376
Re      68.05288421      13.83453018       2.69524834
Re      69.68087384      16.13039765       2.76368358
Re      70.87664058      13.68492015       2.73552852
S       72.72745644      12.59930257       3.93373435
S       72.63885927      14.31468559       1.17957435
S       69.37263135      12.42837999       4.10261085
S       69.53096167      14.56973195       1.00000000
S       71.02655276      15.24558585       4.49921210
S       71.18488308      17.38693781       1.39660125
S       67.83005798      17.21601523       1.56547775
S       67.91865516      15.50063222       4.31963775
Re      69.35846822      21.69497762       2.80396376
Re      64.90672221      19.54872018       2.69524834
Re      66.53471185      21.84458765       2.76368358
Re      67.73047858      19.39911015       2.73552852
S       69.58129444      18.31349257       3.93373435
S       69.49269727      20.02887559       1.17957435
S       66.22646935      18.14256999       4.10261085
S       66.38479967      20.28392195       1.00000000
S       67.88039076      20.95977585       4.49921210
S       68.03872108      23.10112781       1.39660125
S       64.68389599      22.93020523       1.56547775
S       64.77249316      21.21482221       4.31963775
Re      66.21230622      27.40916762       2.80396376
Re      61.76056021      25.26291017       2.69524834
Re      63.38854985      27.55877765       2.76368358
Re      64.58431658      25.11330015       2.73552852
S       66.43513244      24.02768257       3.93373435
S       66.34653527      25.74306558       1.17957435
S       63.08030735      23.85675998       4.10261085
S       63.23863767      25.99811195       1.00000000
S       64.73422876      26.67396584       4.49921210
S       64.89255908      28.81531781       1.39660125
S       61.53773399      28.64439523       1.56547775
S       61.62633116      26.92901221       4.31963775
Re      63.06614422      33.12335761       2.80396376
Re      58.61439821      30.97710017       2.69524834
Re      60.24238785      33.27296764       2.76368358
Re      61.43815459      30.82749014       2.73552852
S       63.28897045      29.74187256       3.93373435
S       63.20037327      31.45725558       1.17957435
S       59.93414535      29.57094998       4.10261085
S       60.09247568      31.71230194       1.00000000
S       61.58806676      32.38815584       4.49921210
S       61.74639708      34.52950780       1.39660125
S       58.39157199      34.35858522       1.56547775
S       58.48016916      32.64320221       4.31963775
Re      59.91998223      38.83754761       2.80396376
Re      55.46823621      36.69129017       2.69524834
Re      57.09622585      38.98715764       2.76368358
Re      58.29199259      36.54168014       2.73552852
S       60.14280845      35.45606256       3.93373435
S       60.05421127      37.17144557       1.17957435
S       56.78798335      35.28513998       4.10261085
S       56.94631368      37.42649194       1.00000000
S       58.44190476      38.10234584       4.49921210
S       58.60023509      40.24369780       1.39660125
S       55.24540999      40.07277522       1.56547775
S       55.33400716      38.35739220       4.31963775
Re      56.77382023      44.55173761       2.80396376
Re      52.32207421      42.40548016       2.69524834
Re      53.95006385      44.70134763       2.76368358
Re      55.14583059      42.25587013       2.73552852
S       56.99664645      41.17025255       3.93373435
S       56.90804928      42.88563557       1.17957435
S       53.64182135      40.99932997       4.10261085
S       53.80015168      43.14068194       1.00000000
S       55.29574276      43.81653583       4.49921210
S       55.45407309      45.95788780       1.39660125
S       52.09924799      45.78696521       1.56547775
S       52.18784517      44.07158220       4.31963775
Re      53.62765823      50.26592760       2.80396376
Re      49.17591222      48.11967016       2.69524834
Re      50.80390185      50.41553763       2.76368358
Re      51.99966859      47.97006013       2.73552852
S       53.85048445      46.88444255       3.93373435
S       53.76188728      48.59982557       1.17957435
S       50.49565936      46.71351997       4.10261085
S       50.65398968      48.85487193       1.00000000
S       52.14958077      49.53072583       4.49921210
S       52.30791109      51.67207779       1.39660125
S       48.95308599      51.50115521       1.56547775
S       49.04168317      49.78577219       4.31963775
Re      50.48149623      55.98011760       2.80396376
Re      46.02975022      53.83386016       2.69524834
Re      47.65773986      56.12972763       2.76368358
Re      48.85350659      53.68425013       2.73552852
S       50.70432245      52.59863255       3.93373435
S       50.61572528      54.31401556       1.17957435
S       47.34949736      52.42770997       4.10261085
S       47.50782768      54.56906193       1.00000000
S       49.00341877      55.24491583       4.49921210
S       49.16174909      57.38626779       1.39660125
S       45.80692400      57.21534521       1.56547775
S       45.89552117      55.49996219       4.31963775
Re      47.33533423      61.69430759       2.80396376
Re      42.88358822      59.54805015       2.69524834
Re      44.51157786      61.84391762       2.76368358
Re      45.70734460      59.39844012       2.73552852
S       47.55816046      58.31282254       3.93373435
S       47.46956328      60.02820556       1.17957435
S       44.20333536      58.14189996       4.10261085
S       44.36166568      60.28325192       1.00000000
S       45.85725677      60.95910582       4.49921210
S       46.01558709      63.10045778       1.39660125
S       42.66076200      62.92953520       1.56547775
S       42.74935917      61.21415219       4.31963775
Re      44.18917224      67.40849759       2.80396376
Re      39.73742622      65.26224015       2.69524834
Re      41.36541586      67.55810762       2.76368358
Re      42.56118260      65.11263012       2.73552852
S       44.41199846      64.02701254       3.93373435
S       44.32340128      65.74239555       1.17957435
S       41.05717336      63.85608996       4.10261085
S       41.21550369      65.99744192       1.00000000
S       42.71109477      66.67329582       4.49921210
S       42.86942510      68.81464778       1.39660125
S       39.51460000      68.64372520       1.56547775
S       39.60319717      66.92834218       4.31963775
Re      85.21605422       4.55240763       2.80396376
Re      80.76430820       2.40615019       2.69524834
Re      82.39229784       4.70201766       2.76368358
Re      83.58806458       2.25654016       2.73552852
S       85.43888044       1.17092258       3.93373435
S       85.35028326       2.88630560       1.17957435
S       82.08405534       1.00000000       4.10261085
S       82.24238567       3.14135196       1.00000000
S       83.73797675       3.81720586       4.49921210
S       83.89630708       5.95855782       1.39660125
S       80.54148198       5.78763524       1.56547775
S       80.63007915       4.07225223       4.31963775
Re      82.06989222      10.26659763       2.80396376
Re      77.61814620       8.12034019       2.69524834
Re      79.24613584      10.41620766       2.76368358
Re      80.44190258       7.97073016       2.73552852
S       82.29271844       6.88511258       3.93373435
S       82.20412127       8.60049559       1.17957435
S       78.93789334       6.71419000       4.10261085
S       79.09622367       8.85554196       1.00000000
S       80.59181475       9.53139586       4.49921210
S       80.75014508      11.67274782       1.39660125
S       77.39531998      11.50182524       1.56547775
S       77.48391716       9.78644222       4.31963775
Re      78.92373022      15.98078762       2.80396376
Re      74.47198421      13.83453018       2.69524834
Re      76.09997384      16.13039765       2.76368358
Re      77.29574058      13.68492015       2.73552852
S       79.14655644      12.59930257       3.93373435
S       79.05795927      14.31468559       1.17957435
S       75.79173135      12.42837999       4.10261085
S       75.95006167      14.56973195       1.00000000
S       77.44565276      15.24558585       4.49921210
S       77.60398308      17.38693781       1.39660125
S       74.24915798      17.21601523       1.56547775
S       74.33775516      15.50063222       4.31963775
Re      75.77756822      21.69497762       2.80396376
Re      71.32582221      19.54872018       2.69524834
Re      72.95381185      21.84458765       2.76368358
Re      74.14957858      19.39911015       2.73552852
S       76.00039444      18.31349257       3.93373435
S       75.91179727      20.02887559       1.17957435
S       72.64556935      18.14256999       4.10261085
S       72.80389967      20.28392195       1.00000000
S       74.29949076      20.95977585       4.49921210
S       74.45782108      23.10112781       1.39660125
S       71.10299599      22.93020523       1.56547775
S       71.19159316      21.21482221       4.31963775
Re      72.63140622      27.40916762       2.80396376
Re      68.17966021      25.26291017       2.69524834
Re      69.80764985      27.55877765       2.76368358
Re      71.00341658      25.11330015       2.73552852
S       72.85423244      24.02768257       3.93373435
S       72.76563527      25.74306558       1.17957435
S       69.49940735      23.85675998       4.10261085
S       69.65773767      25.99811195       1.00000000
S       71.15332876      26.67396584       4.49921210
S       71.31165908      28.81531781       1.39660125
S       67.95683399      28.64439523       1.56547775
S       68.04543116      26.92901221       4.31963775
Re      69.48524422      33.12335761       2.80396376
Re      65.03349821      30.97710017       2.69524834
Re      66.66148785      33.27296764       2.76368358
Re      67.85725459      30.82749014       2.73552852
S       69.70807045      29.74187256       3.93373435
S       69.61947327      31.45725558       1.17957435
S       66.35324535      29.57094998       4.10261085
S       66.51157568      31.71230194       1.00000000
S       68.00716676      32.38815584       4.49921210
S       68.16549708      34.52950780       1.39660125
S       64.81067199      34.35858522       1.56547775
S       64.89926916      32.64320221       4.31963775
Re      66.33908223      38.83754761       2.80396376
Re      61.88733621      36.69129017       2.69524834
Re      63.51532585      38.98715764       2.76368358
Re      64.71109259      36.54168014       2.73552852
S       66.56190845      35.45606256       3.93373435
S       66.47331127      37.17144557       1.17957435
S       63.20708335      35.28513998       4.10261085
S       63.36541368      37.42649194       1.00000000
S       64.86100476      38.10234584       4.49921210
S       65.01933509      40.24369780       1.39660125
S       61.66450999      40.07277522       1.56547775
S       61.75310716      38.35739220       4.31963775
Re      63.19292023      44.55173761       2.80396376
Re      58.74117421      42.40548016       2.69524834
Re      60.36916385      44.70134763       2.76368358
Re      61.56493059      42.25587013       2.73552852
S       63.41574645      41.17025255       3.93373435
S       63.32714928      42.88563557       1.17957435
S       60.06092135      40.99932997       4.10261085
S       60.21925168      43.14068194       1.00000000
S       61.71484276      43.81653583       4.49921210
S       61.87317309      45.95788780       1.39660125
S       58.51834799      45.78696521       1.56547775
S       58.60694517      44.07158220       4.31963775
Re      60.04675823      50.26592760       2.80396376
Re      55.59501222      48.11967016       2.69524834
Re      57.22300185      50.41553763       2.76368358
Re      58.41876859      47.97006013       2.73552852
S       60.26958445      46.88444255       3.93373435
S       60.18098728      48.59982557       1.17957435
S       56.91475936      46.71351997       4.10261085
S       57.07308968      48.85487193       1.00000000
S       58.56868077      49.53072583       4.49921210
S       58.72701109      51.67207779       1.39660125
S       55.37218599      51.50115521       1.56547775
S       55.46078317      49.78577219       4.31963775
Re      56.90059623      55.98011760       2.80396376
Re      52.44885022      53.83386016       2.69524834
Re      54.07683986      56.12972763       2.76368358
Re      55.27260659      53.68425013       2.73552852
S       57.12342245      52.59863255       3.93373435
S       57.03482528      54.31401556       1.17957435
S       53.76859736      52.42770997       4.10261085
S       53.92692768      54.56906193       1.00000000
S       55.42251877      55.24491583       4.49921210
S       55.58084909      57.38626779       1.39660125
S       52.22602400      57.21534521       1.56547775
S       52.31462117      55.49996219       4.31963775
Re      53.75443423      61.69430759       2.80396376
Re      49.30268822      59.54805015       2.69524834
Re      50.93067786      61.84391762       2.76368358
Re      52.12644460      59.39844012       2.73552852
S       53.97726046      58.31282254       3.93373435
S       53.88866328      60.02820556       1.17957435
S       50.62243536      58.14189996       4.10261085
S       50.78076568      60.28325192       1.00000000
S       52.27635677      60.95910582       4.49921210
S       52.43468709      63.10045778       1.39660125
S       49.07986200      62.92953520       1.56547775
S       49.16845917      61.21415219       4.31963775
Re      50.60827224      67.40849759       2.80396376
Re      46.15652622      65.26224015       2.69524834
Re      47.78451586      67.55810762       2.76368358
Re      48.98028260      65.11263012       2.73552852
S       50.83109846      64.02701254       3.93373435
S       50.74250128      65.74239555       1.17957435
S       47.47627336      63.85608996       4.10261085
S       47.63460369      65.99744192       1.00000000
S       49.13019477      66.67329582       4.49921210
S       49.28852510      68.81464778       1.39660125
S       45.93370000      68.64372520       1.56547775
S       46.02229717      66.92834218       4.31963775
Re      91.63515422       4.55240763       2.80396376
Re      87.18340820       2.40615019       2.69524834
Re      88.81139784       4.70201766       2.76368358
Re      90.00716458       2.25654016       2.73552852
S       91.85798044       1.17092258       3.93373435
S       91.76938326       2.88630560       1.17957435
S       88.50315534       1.00000000       4.10261085
S       88.66148567       3.14135196       1.00000000
S       90.15707675       3.81720586       4.49921210
S       90.31540708       5.95855782       1.39660125
S       86.96058198       5.78763524       1.56547775
S       87.04917915       4.07225223       4.31963775
Re      88.48899222      10.26659763       2.80396376
Re      84.03724620       8.12034019       2.69524834
Re      85.66523584      10.41620766       2.76368358
Re      86.86100258       7.97073016       2.73552852
S       88.71181844       6.88511258       3.93373435
S       88.62322127       8.60049559       1.17957435
S       85.35699334       6.71419000       4.10261085
S       85.51532367       8.85554196       1.00000000
S       87.01091475       9.53139586       4.49921210
S       87.16924508      11.67274782       1.39660125
S       83.81441998      11.50182524       1.56547775
S       83.90301716       9.78644222       4.31963775
Re      85.34283022      15.98078762       2.80396376
Re      80.89108421      13.83453018       2.69524834
Re      82.51907384      16.13039765       2.76368358
Re      83.71484058      13.68492015       2.73552852
S       85.56565644      12.59930257       3.93373435
S       85.47705927      14.31468559       1.17957435
S       82.21083135      12.42837999       4.10261085
S       82.36916167      14.56973195       1.00000000
S       83.86475276      15.24558585       4.49921210
S       84.02308308      17.38693781       1.39660125
S       80.66825798      17.21601523       1.56547775
S       80.75685516      15.50063222       4.31963775
Re      82.19666822      21.69497762       2.80396376
Re      77.74492221      19.54872018       2.69524834
Re      79.37291185      21.84458765       2.76368358
Re      80.56867858      19.39911015       2.73552852
S       82.41949444      18.31349257       3.93373435
S       82.33089727      20.02887559       1.17957435
S       79.06466935      18.14256999       4.10261085
S       79.22299967      20.28392195       1.00000000
S       80.71859076      20.95977585       4.49921210
S       80.87692108      23.10112781       1.39660125
S       77.52209599      22.93020523       1.56547775
S       77.61069316      21.21482221       4.31963775
Re      79.05050622      27.40916762       2.80396376
Re      74.59876021      25.26291017       2.69524834
Re      76.22674985      27.55877765       2.76368358
Re      77.42251658      25.11330015       2.73552852
S       79.27333244      24.02768257       3.93373435
S       79.18473527      25.74306558       1.17957435
S       75.91850735      23.85675998       4.10261085
S       76.07683767      25.99811195       1.00000000
S       77.57242876      26.67396584       4.49921210
S       77.73075908      28.81531781       1.39660125
S       74.37593399      28.64439523       1.56547775
S       74.46453116      26.92901221       4.31963775
Re      75.90434422      33.12335761       2.80396376
Re      71.45259821      30.97710017       2.69524834
Re      73.08058785      33.27296764       2.76368358
Re      74.27635459      30.82749014       2.73552852
S       76.12717045      29.74187256       3.93373435
S       76.03857327      31.45725558       1.17957435
S       72.77234535      29.57094998       4.10261085
S       72.93067568      31.71230194       1.00000000
S       74.42626676      32.38815584       4.49921210
S       74.58459708      34.52950780       1.39660125
S       71.22977199      34.35858522       1.56547775
S       71.31836916      32.64320221       4.31963775
Re      72.75818223      38.83754761       2.80396376
Re      68.30643621      36.69129017       2.69524834
Re      69.93442585      38.98715764       2.76368358
Re      71.13019259      36.54168014       2.73552852
S       72.98100845      35.45606256       3.93373435
S       72.89241127      37.17144557       1.17957435
S       69.62618335      35.28513998       4.10261085
S       69.78451368      37.42649194       1.00000000
S       71.28010476      38.10234584       4.49921210
S       71.43843509      40.24369780       1.39660125
S       68.08360999      40.07277522       1.56547775
S       68.17220716      38.35739220       4.31963775
Re      69.61202023      44.55173761       2.80396376
Re      65.16027421      42.40548016       2.69524834
Re      66.78826385      44.70134763       2.76368358
Re      67.98403059      42.25587013       2.73552852
S       69.83484645      41.17025255       3.93373435
S       69.74624928      42.88563557       1.17957435
S       66.48002135      40.99932997       4.10261085
S       66.63835168      43.14068194       1.00000000
S       68.13394276      43.81653583       4.49921210
S       68.29227309      45.95788780       1.39660125
S       64.93744799      45.78696521       1.56547775
S       65.02604517      44.07158220       4.31963775
Re      66.46585823      50.26592760       2.80396376
Re      62.01411222      48.11967016       2.69524834
Re      63.64210185      50.41553763       2.76368358
Re      64.83786859      47.97006013       2.73552852
S       66.68868445      46.88444255       3.93373435
S       66.60008728      48.59982557       1.17957435
S       63.33385936      46.71351997       4.10261085
S       63.49218968      48.85487193       1.00000000
S       64.98778077      49.53072583       4.49921210
S       65.14611109      51.67207779       1.39660125
S       61.79128599      51.50115521       1.56547775
S       61.87988317      49.78577219       4.31963775
Re      63.31969623      55.98011760       2.80396376
Re      58.86795022      53.83386016       2.69524834
Re      60.49593986      56.12972763       2.76368358
Re      61.69170659      53.68425013       2.73552852
S       63.54252245      52.59863255       3.93373435
S       63.45392528      54.31401556       1.17957435
S       60.18769736      52.42770997       4.10261085
S       60.34602768      54.56906193       1.00000000
S       61.84161877      55.24491583       4.49921210
S       61.99994909      57.38626779       1.39660125
S       58.64512400      57.21534521       1.56547775
S       58.73372117      55.49996219       4.31963775
Re      60.17353423      61.69430759       2.80396376
Re      55.72178822      59.54805015       2.69524834
Re      57.34977786      61.84391762       2.76368358
Re      58.54554460      59.39844012       2.73552852
S       60.39636046      58.31282254       3.93373435
S       60.30776328      60.02820556       1.17957435
S       57.04153536      58.14189996       4.10261085
S       57.19986568      60.28325192       1.00000000
S       58.69545677      60.95910582       4.49921210
S       58.85378709      63.10045778       1.39660125
S       55.49896200      62.92953520       1.56547775
S       55.58755917      61.21415219       4.31963775
Re      57.02737224      67.40849759       2.80396376
Re      52.57562622      65.26224015       2.69524834
Re      54.20361586      67.55810762       2.76368358
Re      55.39938260      65.11263012       2.73552852
S       57.25019846      64.02701254       3.93373435
S       57.16160128      65.74239555       1.17957435
S       53.89537336      63.85608996       4.10261085
S       54.05370369      65.99744192       1.00000000
S       55.54929477      66.67329582       4.49921210
S       55.70762510      68.81464778       1.39660125
S       52.35280000      68.64372520       1.56547775
S       52.44139717      66.92834218       4.31963775
Re      98.05425422       4.55240763       2.80396376
Re      93.60250820       2.40615019       2.69524834
Re      95.23049784       4.70201766       2.76368358
Re      96.42626458       2.25654016       2.73552852
S       98.27708044       1.17092258       3.93373435
S       98.18848326       2.88630560       1.17957435
S       94.92225534       1.00000000       4.10261085
S       95.08058567       3.14135196       1.00000000
S       96.57617675       3.81720586       4.49921210
S       96.73450708       5.95855782       1.39660125
S       93.37968198       5.78763524       1.56547775
S       93.46827915       4.07225223       4.31963775
Re      94.90809222      10.26659763       2.80396376
Re      90.45634620       8.12034019       2.69524834
Re      92.08433584      10.41620766       2.76368358
Re      93.28010258       7.97073016       2.73552852
S       95.13091844       6.88511258       3.93373435
S       95.04232127       8.60049559       1.17957435
S       91.77609334       6.71419000       4.10261085
S       91.93442367       8.85554196       1.00000000
S       93.43001475       9.53139586       4.49921210
S       93.58834508      11.67274782       1.39660125
S       90.23351998      11.50182524       1.56547775
S       90.32211716       9.78644222       4.31963775
Re      91.76193022      15.98078762       2.80396376
Re      87.31018421      13.83453018       2.69524834
Re      88.93817384      16.13039765       2.76368358
Re      90.13394058      13.68492015       2.73552852
S       91.98475644      12.59930257       3.93373435
S       91.89615927      14.31468559       1.17957435
S       88.62993135      12.42837999       4.10261085
S       88.78826167      14.56973195       1.00000000
S       90.28385276      15.24558585       4.49921210
S       90.44218308      17.38693781       1.39660125
S       87.08735798      17.21601523       1.56547775
S       87.17595516      15.50063222       4.31963775
Re      88.61576822      21.69497762       2.80396376
Re      84.16402221      19.54872018       2.69524834
Re      85.79201185      21.84458765       2.76368358
Re      86.98777858      19.39911015       2.73552852
S       88.83859444      18.31349257       3.93373435
S       88.74999727      20.02887559       1.17957435
S       85.48376935      18.14256999       4.10261085
S       85.64209967      20.28392195       1.00000000
S       87.13769076      20.95977585       4.49921210
S       87.29602108      23.10112781       1.39660125
S       83.94119599      22.93020523       1.56547775
S       84.02979316      21.21482221       4.31963775
Re      85.46960622      27.40916762       2.80396376
Re      81.01786021      25.26291017       2.69524834
Re      82.64584985      27.55877765       2.76368358
Re      83.84161658      25.11330015       2.73552852
S       85.69243244      24.02768257       3.93373435
S       85.60383527      25.74306558       1.17957435
S       82.33760735      23.85675998       4.10261085
S       82.49593767      25.99811195       1.00000000
S       83.99152876      26.67396584       4.49921210
S       84.14985908      28.81531781       1.39660125
S       80.79503399      28.64439523       1.56547775
S       80.88363116      26.92901221       4.31963775
Re      82.32344422      33.12335761       2.80396376
Re      77.87169821      30.97710017       2.69524834
Re      79.49968785      33.27296764       2.76368358
Re      80.69545459      30.82749014       2.73552852
S       82.54627045      29.74187256       3.93373435
S       82.45767327      31.45725558       1.17957435
S       79.19144535      29.57094998       4.10261085
S       79.34977568      31.71230194       1.00000000
S       80.84536676      32.38815584       4.49921210
S       81.00369708      34.52950780       1.39660125
S       77.64887199      34.35858522       1.56547775
S       77.73746916      32.64320221       4.31963775
Re      79.17728223      38.83754761       2.80396376
Re      74.72553621      36.69129017       2.69524834
Re      76.35352585      38.98715764       2.76368358
Re      77.54929259      36.54168014       2.73552852
S       79.40010845      35.45606256       3.93373435
S       79.31151127      37.17144557       1.17957435
S       76.04528335      35.28513998       4.10261085
S       76.20361368      37.42649194       1.00000000
S       77.69920476      38.10234584       4.49921210
S       77.85753509      40.24369780       1.39660125
S       74.50270999      40.07277522       1.56547775
S       74.59130716      38.35739220       4.31963775
Re      76.03112023      44.55173761       2.80396376
Re      71.57937421      42.40548016       2.69524834
Re      73.20736385      44.70134763       2.76368358
Re      74.40313059      42.25587013       2.73552852
S       76.25394645      41.17025255       3.93373435
S       76.16534928      42.88563557       1.17957435
S       72.89912135      40.99932997       4.10261085
S       73.05745168      43.14068194       1.00000000
S       74.55304276      43.81653583       4.49921210
S       74.71137309      45.95788780       1.39660125
S       71.35654799      45.78696521       1.56547775
S       71.44514517      44.07158220       4.31963775
Re      72.88495823      50.26592760       2.80396376
Re      68.43321222      48.11967016       2.69524834
Re      70.06120185      50.41553763       2.76368358
Re      71.25696859      47.97006013       2.73552852
S       73.10778445      46.88444255       3.93373435
S       73.01918728      48.59982557       1.17957435
S       69.75295936      46.71351997       4.10261085
S       69.91128968      48.85487193       1.00000000
S       71.40688077      49.53072583       4.49921210
S       71.56521109      51.67207779       1.39660125
S       68.21038599      51.50115521       1.56547775
S       68.29898317      49.78577219       4.31963775
Re      69.73879623      55.98011760       2.80396376
Re      65.28705022      53.83386016       2.69524834
Re      66.91503986      56.12972763       2.76368358
Re      68.11080659      53.68425013       2.73552852
S       69.96162245      52.59863255       3.93373435
S       69.87302528      54.31401556       1.17957435
S       66.60679736      52.42770997       4.10261085
S       66.76512768      54.56906193       1.00000000
S       68.26071877      55.24491583       4.49921210
S       68.41904909      57.38626779       1.39660125
S       65.06422400      57.21534521       1.56547775
S       65.15282117      55.49996219       4.31963775
Re      66.59263423      61.69430759       2.80396376
Re      62.14088822      59.54805015       2.69524834
Re      63.76887786      61.84391762       2.76368358
Re      64.96464460      59.39844012       2.73552852
S       66.81546046      58.31282254       3.93373435
S       66.72686328      60.02820556       1.17957435
S       63.46063536      58.14189996       4.10261085
S       63.61896568      60.28325192       1.00000000
S       65.11455677      60.95910582       4.49921210
S       65.27288709      63.10045778       1.39660125
S       61.91806200      62.92953520       1.56547775
S       62.00665917      61.21415219       4.31963775
Re      63.44647224      67.40849759       2.80396376
Re      58.99472622      65.26224015       2.69524834
Re      60.62271586      67.55810762       2.76368358
Re      61.81848260      65.11263012       2.73552852
S       63.66929846      64.02701254       3.93373435
S       63.58070128      65.74239555       1.17957435
S       60.31447336      63.85608996       4.10261085
S       60.47280369      65.99744192       1.00000000
S       61.96839477      66.67329582       4.49921210
S       62.12672510      68.81464778       1.39660125
S       58.77190000      68.64372520       1.56547775
S       58.86049717      66.92834218       4.31963775
Re     104.47335422       4.55240763       2.80396376
Re     100.02160820       2.40615019       2.69524834
Re     101.64959784       4.70201766       2.76368358
Re     102.84536458       2.25654016       2.73552852
S      104.69618044       1.17092258       3.93373435
S      104.60758326       2.88630560       1.17957435
S      101.34135534       1.00000000       4.10261085
S      101.49968567       3.14135196       1.00000000
S      102.99527675       3.81720586       4.49921210
S      103.15360708       5.95855782       1.39660125
S       99.79878198       5.78763524       1.56547775
S       99.88737915       4.07225223       4.31963775
Re     101.32719222      10.26659763       2.80396376
Re      96.87544620       8.12034019       2.69524834
Re      98.50343584      10.41620766       2.76368358
Re      99.69920258       7.97073016       2.73552852
S      101.55001844       6.88511258       3.93373435
S      101.46142127       8.60049559       1.17957435
S       98.19519334       6.71419000       4.10261085
S       98.35352367       8.85554196       1.00000000
S       99.84911475       9.53139586       4.49921210
S      100.00744508      11.67274782       1.39660125
S       96.65261998      11.50182524       1.56547775
S       96.74121716       9.78644222       4.31963775
Re      98.18103022      15.98078762       2.80396376
Re      93.72928421      13.83453018       2.69524834
Re      95.35727384      16.13039765       2.76368358
Re      96.55304058      13.68492015       2.73552852
S       98.40385644      12.59930257       3.93373435
S       98.31525927      14.31468559       1.17957435
S       95.04903135      12.42837999       4.10261085
S       95.20736167      14.56973195       1.00000000
S       96.70295276      15.24558585       4.49921210
S       96.86128308      17.38693781       1.39660125
S       93.50645798      17.21601523       1.56547775
S       93.59505516      15.50063222       4.31963775
Re      95.03486822      21.69497762       2.80396376
Re      90.58312221      19.54872018       2.69524834
Re      92.21111185      21.84458765       2.76368358
Re      93.40687858      19.39911015       2.73552852
S       95.25769444      18.31349257       3.93373435
S       95.16909727      20.02887559       1.17957435
S       91.90286935      18.14256999       4.10261085
S       92.06119967      20.28392195       1.00000000
S       93.55679076      20.95977585       4.49921210
S       93.71512108      23.10112781       1.39660125
S       90.36029599      22.93020523       1.56547775
S       90.44889316      21.21482221       4.31963775
Re      91.88870622      27.40916762       2.80396376
Re      87.43696021      25.26291017       2.69524834
Re      89.06494985      27.55877765       2.76368358
Re      90.26071658      25.11330015       2.73552852
S       92.11153244      24.02768257       3.93373435
S       92.02293527      25.74306558       1.17957435
S       88.75670735      23.85675998       4.10261085
S       88.91503767      25.99811195       1.00000000
S       90.41062876      26.67396584       4.49921210
S       90.56895908      28.81531781       1.39660125
S       87.21413399      28.64439523       1.56547775
S       87.30273116      26.92901221       4.31963775
Re      88.74254422      33.12335761       2.80396376
Re      84.29079821      30.97710017       2.69524834
Re      85.91878785      33.27296764       2.76368358
Re      87.11455459      30.82749014       2.73552852
S       88.96537045      29.74187256       3.93373435
S       88.87677327      31.45725558       1.17957435
S       85.61054535      29.57094998       4.10261085
S       85.76887568      31.71230194       1.00000000
S       87.26446676      32.38815584       4.49921210
S       87.42279708      34.52950780       1.39660125
S       84.06797199      34.35858522       1.56547775
S       84.15656916      32.64320221       4.31963775
Re      85.59638223      38.83754761       2.80396376
Re      81.14463621      36.69129017       2.69524834
Re      82.77262585      38.98715764       2.76368358
Re      83.96839259      36.54168014       2.73552852
S       85.81920845      35.45606256       3.93373435
S       85.73061127      37.17144557       1.17957435
S       82.46438335      35.28513998       4.10261085
S       82.62271368      37.42649194       1.00000000
S       84.11830476      38.10234584       4.49921210
S       84.27663509      40.24369780       1.39660125
S       80.92180999      40.07277522       1.56547775
S       81.01040716      38.35739220       4.31963775
Re      82.45022023      44.55173761       2.80396376
Re      77.99847421      42.40548016       2.69524834
Re      79.62646385      44.70134763       2.76368358
Re      80.82223059      42.25587013       2.73552852
S       82.67304645      41.17025255       3.93373435
S       82.58444928      42.88563557       1.17957435
S       79.31822135      40.99932997       4.10261085
S       79.47655168      43.14068194       1.00000000
S       80.97214276      43.81653583       4.49921210
S       81.13047309      45.95788780       1.39660125
S       77.77564799      45.78696521       1.56547775
S       77.86424517      44.07158220       4.31963775
Re      79.30405823      50.26592760       2.80396376
Re      74.85231222      48.11967016       2.69524834
Re      76.48030185      50.41553763       2.76368358
Re      77.67606859      47.97006013       2.73552852
S       79.52688445      46.88444255       3.93373435
S       79.43828728      48.59982557       1.17957435
S       76.17205936      46.71351997       4.10261085
S       76.33038968      48.85487193       1.00000000
S       77.82598077      49.53072583       4.49921210
S       77.98431109      51.67207779       1.39660125
S       74.62948599      51.50115521       1.56547775
S       74.71808317      49.78577219       4.31963775
Re      76.15789623      55.98011760       2.80396376
Re      71.70615022      53.83386016       2.69524834
Re      73.33413986      56.12972763       2.76368358
Re      74.52990659      53.68425013       2.73552852
S       76.38072245      52.59863255       3.93373435
S       76.29212528      54.31401556       1.17957435
S       73.02589736      52.42770997       4.10261085
S       73.18422768      54.56906193       1.00000000
S       74.67981877      55.24491583       4.49921210
S       74.83814909      57.38626779       1.39660125
S       71.48332400      57.21534521       1.56547775
S       71.57192117      55.49996219       4.31963775
Re      73.01173423      61.69430759       2.80396376
Re      68.55998822      59.54805015       2.69524834
Re      70.18797786      61.84391762       2.76368358
Re      71.38374460      59.39844012       2.73552852
S       73.23456046      58.31282254       3.93373435
S       73.14596328      60.02820556       1.17957435
S       69.87973536      58.14189996       4.10261085
S       70.03806568      60.28325192       1.00000000
S       71.53365677      60.95910582       4.49921210
S       71.69198709      63.10045778       1.39660125
S       68.33716200      62.92953520       1.56547775
S       68.42575917      61.21415219       4.31963775
Re      69.86557224      67.40849759       2.80396376
Re      65.41382622      65.26224015       2.69524834
Re      67.04181586      67.55810762       2.76368358
Re      68.23758260      65.11263012       2.73552852
S       70.08839846      64.02701254       3.93373435
S       69.99980128      65.74239555       1.17957435
S       66.73357336      63.85608996       4.10261085
S       66.89190369      65.99744192       1.00000000
S       68.38749477      66.67329582       4.49921210
S       68.54582510      68.81464778       1.39660125
S       65.19100000      68.64372520       1.56547775
S       65.27959717      66.92834218       4.31963775
Re     110.89245422       4.55240763       2.80396376
Re     106.44070820       2.40615019       2.69524834
Re     108.06869784       4.70201766       2.76368358
Re     109.26446458       2.25654016       2.73552852
S      111.11528044       1.17092258       3.93373435
S      111.02668326       2.88630560       1.17957435
S      107.76045534       1.00000000       4.10261085
S      107.91878567       3.14135196       1.00000000
S      109.41437675       3.81720586       4.49921210
S      109.57270708       5.95855782       1.39660125
S      106.21788198       5.78763524       1.56547775
S      106.30647915       4.07225223       4.31963775
Re     107.74629222      10.26659763       2.80396376
Re     103.29454620       8.12034019       2.69524834
Re     104.92253584      10.41620766       2.76368358
Re     106.11830258       7.97073016       2.73552852
S      107.96911844       6.88511258       3.93373435
S      107.88052127       8.60049559       1.17957435
S      104.61429334       6.71419000       4.10261085
S      104.77262367       8.85554196       1.00000000
S      106.26821475       9.53139586       4.49921210
S      106.42654508      11.67274782       1.39660125
S      103.07171998      11.50182524       1.56547775
S      103.16031716       9.78644222       4.31963775
Re     104.60013022      15.98078762       2.80396376
Re     100.14838421      13.83453018       2.69524834
Re     101.77637384      16.13039765       2.76368358
Re     102.97214058      13.68492015       2.73552852
S      104.82295644      12.59930257       3.93373435
S      104.73435927      14.31468559       1.17957435
S      101.46813135      12.42837999       4.10261085
S      101.62646167      14.56973195       1.00000000
S      103.12205276      15.24558585       4.49921210
S      103.28038308      17.38693781       1.39660125
S       99.92555798      17.21601523       1.56547775
S      100.01415516      15.50063222       4.31963775
Re     101.45396822      21.69497762       2.80396376
Re      97.00222221      19.54872018       2.69524834
Re      98.63021185      21.84458765       2.76368358
Re      99.82597858      19.39911015       2.73552852
S      101.67679444      18.31349257       3.93373435
S      101.58819727      20.02887559       1.17957435
S       98.32196935      18.14256999       4.10261085
S       98.48029967      20.28392195       1.00000000
S       99.97589076      20.95977585       4.49921210
S      100.13422108      23.10112781       1.39660125
S       96.77939599      22.93020523       1.56547775
S       96.86799316      21.21482221       4.31963775
Re      98.30780622      27.40916762       2.80396376
Re      93.85606021      25.26291017       2.69524834
Re      95.48404985      27.55877765       2.76368358
Re      96.67981658      25.11330015       2.73552852
S       98.53063244      24.02768257       3.93373435
S       98.44203527      25.74306558       1.17957435
S       95.17580735      23.85675998       4.10261085
S       95.33413767      25.99811195       1.00000000
S       96.82972876      26.67396584       4.49921210
S       96.98805908      28.81531781       1.39660125
S       93.63323399      28.64439523       1.56547775
S       93.72183116      26.92901221       4.31963775
Re      95.16164422      33.12335761       2.80396376
Re      90.70989821      30.97710017       2.69524834
Re      92.33788785      33.27296764       2.76368358
Re      93.53365459      30.82749014       2.73552852
S       95.38447045      29.74187256       3.93373435
S       95.29587327      31.45725558       1.17957435
S       92.02964535      29.57094998       4.10261085
S       92.18797568      31.71230194       1.00000000
S       93.68356676      32.38815584       4.49921210
S       93.84189708      34.52950780       1.39660125
S       90.48707199      34.35858522       1.56547775
S       90.57566916      32.64320221       4.31963775
Re      92.01548223      38.83754761       2.80396376
Re      87.56373621      36.69129017       2.69524834
Re      89.19172585      38.98715764       2.76368358
Re      90.38749259      36.54168014       2.73552852
S       92.23830845      35.45606256       3.93373435
S       92.14971127      37.17144557       1.17957435
S       88.88348335      35.28513998       4.10261085
S       89.04181368      37.42649194       1.00000000
S       90.53740476      38.10234584       4.49921210
S       90.69573509      40.24369780       1.39660125
S       87.34090999      40.07277522       1.56547775
S       87.42950716      38.35739220       4.31963775
Re      88.86932023      44.55173761       2.80396376
Re      84.41757421      42.40548016       2.69524834
Re      86.04556385      44.70134763       2.76368358
Re      87.24133059      42.25587013       2.73552852
S       89.09214645      41.17025255       3.93373435
S       89.00354928      42.88563557       1.17957435
S       85.73732135      40.99932997       4.10261085
S       85.89565168      43.14068194       1.00000000
S       87.39124276      43.81653583       4.49921210
S       87.54957309      45.95788780       1.39660125
S       84.19474799      45.78696521       1.56547775
S       84.28334517      44.07158220       4.31963775
Re      85.72315823      50.26592760       2.80396376
Re      81.27141222      48.11967016       2.69524834
Re      82.89940185      50.41553763       2.76368358
Re      84.09516859      47.97006013       2.73552852
S       85.94598445      46.88444255       3.93373435
S       85.85738728      48.59982557       1.17957435
S       82.59115936      46.71351997       4.10261085
S       82.74948968      48.85487193       1.00000000
S       84.24508077      49.53072583       4.49921210
S       84.40341109      51.67207779       1.39660125
S       81.04858599      51.50115521       1.56547775
S       81.13718317      49.78577219       4.31963775
Re      82.57699623      55.98011760       2.80396376
Re      78.12525022      53.83386016       2.69524834
Re      79.75323986      56.12972763       2.76368358
Re      80.94900659      53.68425013       2.73552852
S       82.79982245      52.59863255       3.93373435
S       82.71122528      54.31401556       1.17957435
S       79.44499736      52.42770997       4.10261085
S       79.60332768      54.56906193       1.00000000
S       81.09891877      55.24491583       4.49921210
S       81.25724909      57.38626779       1.39660125
S       77.90242400      57.21534521       1.56547775
S       77.99102117      55.49996219       4.31963775
Re      79.43083423      61.69430759       2.80396376
Re      74.97908822      59.54805015       2.69524834
Re      76.60707786      61.84391762       2.76368358
Re      77.80284460      59.39844012       2.73552852
S       79.65366046      58.31282254       3.93373435
S       79.56506328      60.02820556       1.17957435
S       76.29883536      58.14189996       4.10261085
S       76.45716568      60.28325192       1.00000000
S       77.95275677      60.95910582       4.49921210
S       78.11108709      63.10045778       1.39660125
S       74.75626200      62.92953520       1.56547775
S       74.84485917      61.21415219       4.31963775
Re      76.28467224      67.40849759       2.80396376
Re      71.83292622      65.26224015       2.69524834
Re      73.46091586      67.55810762       2.76368358
Re      74.65668260      65.11263012       2.73552852
S       76.50749846      64.02701254       3.93373435
S       76.41890128      65.74239555       1.17957435
S       73.15267336      63.85608996       4.10261085
S       73.31100369      65.99744192       1.00000000
S       74.80659477      66.67329582       4.49921210
S       74.96492510      68.81464778       1.39660125
S       71.61010000      68.64372520       1.56547775
S       71.69869717      66.92834218       4.31963775
Re      74.45812583       6.06806733       9.50396376
Re      74.09096629       1.13961347       9.39524834
Re      72.91668155       3.69742759       9.46368358
Re      75.63241056       3.51025321       9.43552852
S       77.49799090       4.57029798      10.63373435
S       75.96812703       5.35126208       7.87957435
S       75.96860164       1.57947292      10.80261085
S       74.19330161       2.78726699       7.70000000
S       74.35579050       4.42041381      11.19921210
S       72.58049047       5.62820788       8.09660125
S       71.05110122       2.63738283       8.26547775
S       72.58096507       1.85641872      11.01963775
Re      67.93641113       6.20050612       9.50396376
Re      67.56925158       1.27205225       9.39524834
Re      66.39496685       3.82986637       9.46368358
Re      69.11069586       3.64269200       9.43552852
S       70.97627619       4.70273676      10.63373435
S       69.44641235       5.48370086       7.87957435
S       69.44688694       1.71191171      10.80261085
S       67.67158691       2.91970578       7.70000000
S       67.83407580       4.55285259      11.19921210
S       66.05877577       5.76064666       8.09660125
S       64.52938652       2.76982161       8.26547775
S       66.05925038       1.98885751      11.01963775
Re      61.41469643       6.33294490       9.50396376
Re      61.04753690       1.40449104       9.39524834
Re      59.87325216       3.96230515       9.46368358
Re      62.58898117       3.77513077       9.43552852
S       64.45456150       4.83517554      10.63373435
S       62.92469764       5.61613965       7.87957435
S       62.92517225       1.84435049      10.80261085
S       61.14987222       3.05214455       7.70000000
S       61.31236111       4.68529138      11.19921210
S       59.53706108       5.89308544       8.09660125
S       58.00767183       2.90226039       8.26547775
S       59.53753568       2.12129629      11.01963775
Re      54.89298173       6.46538368       9.50396376
Re      54.52582219       1.53692982       9.39524834
Re      53.35153746       4.09474394       9.46368358
Re      56.06726647       3.90756956       9.43552852
S       57.93284680       4.96761432      10.63373435
S       56.40298294       5.74857843       7.87957435
S       56.40345755       1.97678928      10.80261085
S       54.62815751       3.18458334       7.70000000
S       54.79064641       4.81773016      11.19921210
S       53.01534638       6.02552422       8.09660125
S       51.48595713       3.03469918       8.26547775
S       53.01582099       2.25373507      11.01963775
Re      48.37126703       6.59782246       9.50396376
Re      48.00410750       1.66936860       9.39524834
Re      46.82982276       4.22718273       9.46368358
Re      49.54555176       4.04000834       9.43552852
S       51.41113210       5.10005310      10.63373435
S       49.88126825       5.88101721       7.87957435
S       49.88174286       2.10922806      10.80261085
S       48.10644281       3.31702212       7.70000000
S       48.26893172       4.95016894      11.19921210
S       46.49363167       6.15796301       8.09660125
S       44.96424243       3.16713796       8.26547775
S       46.49410628       2.38617385      11.01963775
Re      41.84955234       6.73026124       9.50396376
Re      41.48239280       1.80180739       9.39524834
Re      40.30810807       4.35962151       9.46368358
Re      43.02383708       4.17244713       9.43552852
S       44.88941741       5.23249189      10.63373435
S       43.35955355       6.01345599       7.87957435
S       43.36002815       2.24166684      10.80261085
S       41.58472812       3.44946091       7.70000000
S       41.74721702       5.08260773      11.19921210
S       39.97191698       6.29040179       8.09660125
S       38.44252773       3.29957674       8.26547775
S       39.97239158       2.51861264      11.01963775
Re      35.32783764       6.86270003       9.50396376
Re      34.96067810       1.93424617       9.39524834
Re      33.78639336       4.49206029       9.46368358
Re      36.50212237       4.30488591       9.43552852
S       38.36770271       5.36493068      10.63373435
S       36.83783885       6.14589477       7.87957435
S       36.83831345       2.37410562      10.80261085
S       35.06301342       3.58189969       7.70000000
S       35.22550231       5.21504651      11.19921210
S       33.45020228       6.42284058       8.09660125
S       31.92081303       3.43201553       8.26547775
S       33.45067689       2.65105142      11.01963775
Re      28.80612294       6.99513882       9.50396376
Re      28.43896340       2.06668495       9.39524834
Re      27.26467867       4.62449907       9.46368358
Re      29.98040768       4.43732469       9.43552852
S       31.84598801       5.49736945      10.63373435
S       30.31612416       6.27833356       7.87957435
S       30.31659876       2.50654440      10.80261085
S       28.54129872       3.71433848       7.70000000
S       28.70378762       5.34748529      11.19921210
S       26.92848758       6.55527936       8.09660125
S       25.39909834       3.56445431       8.26547775
S       26.92896219       2.78349021      11.01963775
Re      22.28440824       7.12757760       9.50396376
Re      21.91724871       2.19912374       9.39524834
Re      20.74296397       4.75693785       9.46368358
Re      23.45869298       4.56976348       9.43552852
S       25.32427331       5.62980824      10.63373435
S       23.79440945       6.41077235       7.87957435
S       23.79488406       2.63898319      10.80261085
S       22.01958403       3.84677725       7.70000000
S       22.18207292       5.47992408      11.19921210
S       20.40677289       6.68771814       8.09660125
S       18.87738364       3.69689309       8.26547775
S       20.40724750       2.91592899      11.01963775
Re      15.76269354       7.26001638       9.50396376
Re      15.39553400       2.33156252       9.39524834
Re      14.22124927       4.88937664       9.46368358
Re      16.93697828       4.70220226       9.43552852
S       18.80255861       5.76224702      10.63373435
S       17.27269476       6.54321113       7.87957435
S       17.27316936       2.77142198      10.80261085
S       15.49786932       3.97921604       7.70000000
S       15.66035822       5.61236286      11.19921210
S       13.88505819       6.82015692       8.09660125
S       12.35566894       3.82933188       8.26547775
S       13.88553280       3.04836777      11.01963775
Re       9.24097885       7.39245516       9.50396376
Re       8.87381931       2.46400130       9.39524834
Re       7.69953458       5.02181542       9.46368358
Re      10.41526359       4.83464105       9.43552852
S       12.28084392       5.89468581      10.63373435
S       10.75098006       6.67564991       7.87957435
S       10.75145467       2.90386076      10.80261085
S        8.97615463       4.11165482       7.70000000
S        9.13864353       5.74480164      11.19921210
S        7.36334349       6.95259570       8.09660125
S        5.83395424       3.96177066       8.26547775
S        7.36381809       3.18080655      11.01963775
Re       2.71926415       7.52489395       9.50396376
Re       2.35210461       2.59644009       9.39524834
Re       1.17781988       5.15425421       9.46368358
Re       3.89354889       4.96707983       9.43552852
S        5.75912922       6.02712459      10.63373435
S        4.22926536       6.80808869       7.87957435
S        4.22973996       3.03629954      10.80261085
S        2.45443993       4.24409361       7.70000000
S        2.61692883       5.87724043      11.19921210
S        0.84162880       7.08503450       8.09660125
S       -0.68776046       4.09420944       8.26547775
S        0.84210340       3.31324533      11.01963775
Re      77.66767583      11.62717100       9.50396376
Re      77.30051629       6.69871714       9.39524834
Re      76.12623155       9.25653126       9.46368358
Re      78.84196056       9.06935688       9.43552852
S       80.70754090      10.12940164      10.63373435
S       79.17767703      10.91036575       7.87957435
S       79.17815164       7.13857659      10.80261085
S       77.40285161       8.34637066       7.70000000
S       77.56534050       9.97951748      11.19921210
S       75.79004047      11.18731155       8.09660125
S       74.26065122       8.19648650       8.26547775
S       75.79051507       7.41552239      11.01963775
Re      71.14596113      11.75960979       9.50396376
Re      70.77880158       6.83115592       9.39524834
Re      69.60451685       9.38897004       9.46368358
Re      72.32024586       9.20179567       9.43552852
S       74.18582619      10.26184043      10.63373435
S       72.65596235      11.04280453       7.87957435
S       72.65643694       7.27101538      10.80261085
S       70.88113691       8.47880944       7.70000000
S       71.04362580      10.11195626      11.19921210
S       69.26832577      11.31975033       8.09660125
S       67.73893652       8.32892528       8.26547775
S       69.26880038       7.54796118      11.01963775
Re      64.62424643      11.89204856       9.50396376
Re      64.25708690       6.96359471       9.39524834
Re      63.08280216       9.52140882       9.46368358
Re      65.79853117       9.33423444       9.43552852
S       67.66411150      10.39427921      10.63373435
S       66.13424764      11.17524332       7.87957435
S       66.13472225       7.40345416      10.80261085
S       64.35942222       8.61124822       7.70000000
S       64.52191111      10.24439505      11.19921210
S       62.74661108      11.45218911       8.09660125
S       61.21722183       8.46136406       8.26547775
S       62.74708568       7.68039996      11.01963775
Re      58.10253173      12.02448735       9.50396376
Re      57.73537219       7.09603349       9.39524834
Re      56.56108746       9.65384761       9.46368358
Re      59.27681647       9.46667323       9.43552852
S       61.14239680      10.52671799      10.63373435
S       59.61253294      11.30768210       7.87957435
S       59.61300755       7.53589295      10.80261085
S       57.83770751       8.74368701       7.70000000
S       58.00019641      10.37683383      11.19921210
S       56.22489638      11.58462789       8.09660125
S       54.69550713       8.59380285       8.26547775
S       56.22537099       7.81283874      11.01963775
Re      51.58081703      12.15692613       9.50396376
Re      51.21365750       7.22847227       9.39524834
Re      50.03937276       9.78628640       9.46368358
Re      52.75510176       9.59911201       9.43552852
S       54.62068210      10.65915677      10.63373435
S       53.09081825      11.44012088       7.87957435
S       53.09129286       7.66833173      10.80261085
S       51.31599281       8.87612579       7.70000000
S       51.47848172      10.50927261      11.19921210
S       49.70318167      11.71706668       8.09660125
S       48.17379243       8.72624163       8.26547775
S       49.70365628       7.94527752      11.01963775
Re      45.05910234      12.28936491       9.50396376
Re      44.69194280       7.36091105       9.39524834
Re      43.51765807       9.91872517       9.46368358
Re      46.23338708       9.73155080       9.43552852
S       48.09896741      10.79159556      10.63373435
S       46.56910355      11.57255966       7.87957435
S       46.56957815       7.80077051      10.80261085
S       44.79427812       9.00856458       7.70000000
S       44.95676702      10.64171140      11.19921210
S       43.18146698      11.84950546       8.09660125
S       41.65207773       8.85868041       8.26547775
S       43.18194158       8.07771631      11.01963775
Re      38.53738764      12.42180370       9.50396376
Re      38.17022810       7.49334984       9.39524834
Re      36.99594336      10.05116396       9.46368358
Re      39.71167237       9.86398958       9.43552852
S       41.57725271      10.92403434      10.63373435
S       40.04738885      11.70499844       7.87957435
S       40.04786345       7.93320929      10.80261085
S       38.27256342       9.14100336       7.70000000
S       38.43505231      10.77415018      11.19921210
S       36.65975228      11.98194425       8.09660125
S       35.13036303       8.99111920       8.26547775
S       36.66022689       8.21015509      11.01963775
Re      32.01567294      12.55424249       9.50396376
Re      31.64851340       7.62578862       9.39524834
Re      30.47422867      10.18360274       9.46368358
Re      33.18995768       9.99642836       9.43552852
S       35.05553801      11.05647312      10.63373435
S       33.52567416      11.83743723       7.87957435
S       33.52614876       8.06564807      10.80261085
S       31.75084872       9.27344214       7.70000000
S       31.91333762      10.90658896      11.19921210
S       30.13803758      12.11438303       8.09660125
S       28.60864834       9.12355797       8.26547775
S       30.13851219       8.34259388      11.01963775
Re      25.49395824      12.68668126       9.50396376
Re      25.12679871       7.75822741       9.39524834
Re      23.95251397      10.31604152       9.46368358
Re      26.66824298      10.12886714       9.43552852
S       28.53382331      11.18891191      10.63373435
S       27.00395945      11.96987602       7.87957435
S       27.00443406       8.19808686      10.80261085
S       25.22913403       9.40588092       7.70000000
S       25.39162292      11.03902775      11.19921210
S       23.61632289      12.24682181       8.09660125
S       22.08693364       9.25599676       8.26547775
S       23.61679750       8.47503266      11.01963775
Re      18.97224354      12.81912005       9.50396376
Re      18.60508400       7.89066619       9.39524834
Re      17.43079927      10.44848031       9.46368358
Re      20.14652828      10.26130593       9.43552852
S       22.01210861      11.32135069      10.63373435
S       20.48224476      12.10231480       7.87957435
S       20.48271936       8.33052565      10.80261085
S       18.70741932       9.53831971       7.70000000
S       18.86990822      11.17146653      11.19921210
S       17.09460819      12.37926059       8.09660125
S       15.56521894       9.38843555       8.26547775
S       17.09508280       8.60747144      11.01963775
Re      12.45052885      12.95155883       9.50396376
Re      12.08336931       8.02310497       9.39524834
Re      10.90908458      10.58091909       9.46368358
Re      13.62481359      10.39374472       9.43552852
S       15.49039392      11.45378948      10.63373435
S       13.96053006      12.23475358       7.87957435
S       13.96100467       8.46296443      10.80261085
S       12.18570463       9.67075849       7.70000000
S       12.34819353      11.30390531      11.19921210
S       10.57289349      12.51169937       8.09660125
S        9.04350424       9.52087433       8.26547775
S       10.57336809       8.73991022      11.01963775
Re       5.92881415      13.08399762       9.50396376
Re       5.56165461       8.15554375       9.39524834
Re       4.38736988      10.71335788       9.46368358
Re       7.10309889      10.52618350       9.43552852
S        8.96867922      11.58622826      10.63373435
S        7.43881536      12.36719236       7.87957435
S        7.43928996       8.59540321      10.80261085
S        5.66398993       9.80319728       7.70000000
S        5.82647883      11.43634410      11.19921210
S        4.05117880      12.64413816       8.09660125
S        2.52178954       9.65331311       8.26547775
S        4.05165340       8.87234900      11.01963775
Re      80.87722583      17.18627467       9.50396376
Re      80.51006629      12.25782081       9.39524834
Re      79.33578155      14.81563493       9.46368358
Re      82.05151056      14.62846055       9.43552852
S       83.91709090      15.68850531      10.63373435
S       82.38722703      16.46946942       7.87957435
S       82.38770164      12.69768026      10.80261085
S       80.61240161      13.90547433       7.70000000
S       80.77489050      15.53862115      11.19921210
S       78.99959047      16.74641522       8.09660125
S       77.47020122      13.75559017       8.26547775
S       79.00006507      12.97462606      11.01963775
Re      74.35551113      17.31871346       9.50396376
Re      73.98835158      12.39025959       9.39524834
Re      72.81406685      14.94807371       9.46368358
Re      75.52979586      14.76089934       9.43552852
S       77.39537619      15.82094410      10.63373435
S       75.86551235      16.60190820       7.87957435
S       75.86598694      12.83011905      10.80261085
S       74.09068691      14.03791311       7.70000000
S       74.25317580      15.67105993      11.19921210
S       72.47787577      16.87885400       8.09660125
S       70.94848652      13.88802895       8.26547775
S       72.47835038      13.10706485      11.01963775
Re      67.83379643      17.45115223       9.50396376
Re      67.46663690      12.52269838       9.39524834
Re      66.29235216      15.08051249       9.46368358
Re      69.00808117      14.89333811       9.43552852
S       70.87366150      15.95338288      10.63373435
S       69.34379764      16.73434699       7.87957435
S       69.34427225      12.96255783      10.80261085
S       67.56897222      14.17035189       7.70000000
S       67.73146111      15.80349872      11.19921210
S       65.95616108      17.01129278       8.09660125
S       64.42677183      14.02046773       8.26547775
S       65.95663568      13.23950363      11.01963775
Re      61.31208173      17.58359102       9.50396376
Re      60.94492219      12.65513716       9.39524834
Re      59.77063746      15.21295128       9.46368358
Re      62.48636647      15.02577690       9.43552852
S       64.35194680      16.08582166      10.63373435
S       62.82208294      16.86678577       7.87957435
S       62.82255755      13.09499662      10.80261085
S       61.04725751      14.30279068       7.70000000
S       61.20974641      15.93593750      11.19921210
S       59.43444638      17.14373156       8.09660125
S       57.90505713      14.15290652       8.26547775
S       59.43492099      13.37194241      11.01963775
Re      54.79036703      17.71602980       9.50396376
Re      54.42320750      12.78757594       9.39524834
Re      53.24892276      15.34539007       9.46368358
Re      55.96465176      15.15821568       9.43552852
S       57.83023210      16.21826044      10.63373435
S       56.30036825      16.99922455       7.87957435
S       56.30084286      13.22743540      10.80261085
S       54.52554281      14.43522946       7.70000000
S       54.68803172      16.06837628      11.19921210
S       52.91273167      17.27617035       8.09660125
S       51.38334243      14.28534530       8.26547775
S       52.91320628      13.50438119      11.01963775
Re      48.26865234      17.84846858       9.50396376
Re      47.90149280      12.92001472       9.39524834
Re      46.72720807      15.47782884       9.46368358
Re      49.44293708      15.29065447       9.43552852
S       51.30851741      16.35069923      10.63373435
S       49.77865355      17.13166333       7.87957435
S       49.77912815      13.35987418      10.80261085
S       48.00382812      14.56766825       7.70000000
S       48.16631702      16.20081507      11.19921210
S       46.39101698      17.40860913       8.09660125
S       44.86162773      14.41778408       8.26547775
S       46.39149158      13.63681998      11.01963775
Re      41.74693764      17.98090737       9.50396376
Re      41.37977810      13.05245351       9.39524834
Re      40.20549336      15.61026763       9.46368358
Re      42.92122237      15.42309325       9.43552852
S       44.78680271      16.48313801      10.63373435
S       43.25693885      17.26410211       7.87957435
S       43.25741345      13.49231296      10.80261085
S       41.48211342      14.70010703       7.70000000
S       41.64460231      16.33325385      11.19921210
S       39.86930228      17.54104792       8.09660125
S       38.33991303      14.55022287       8.26547775
S       39.86977689      13.76925876      11.01963775
Re      35.22522294      18.11334616       9.50396376
Re      34.85806340      13.18489229       9.39524834
Re      33.68377867      15.74270641       9.46368358
Re      36.39950768      15.55553203       9.43552852
S       38.26508801      16.61557679      10.63373435
S       36.73522416      17.39654090       7.87957435
S       36.73569876      13.62475174      10.80261085
S       34.96039872      14.83254581       7.70000000
S       35.12288762      16.46569263      11.19921210
S       33.34758758      17.67348670       8.09660125
S       31.81819834      14.68266164       8.26547775
S       33.34806219      13.90169755      11.01963775
Re      28.70350824      18.24578493       9.50396376
Re      28.33634871      13.31733108       9.39524834
Re      27.16206397      15.87514519       9.46368358
Re      29.87779298      15.68797081       9.43552852
S       31.74337331      16.74801558      10.63373435
S       30.21350945      17.52897969       7.87957435
S       30.21398406      13.75719053      10.80261085
S       28.43868403      14.96498459       7.70000000
S       28.60117292      16.59813142      11.19921210
S       26.82587289      17.80592548       8.09660125
S       25.29648364      14.81510043       8.26547775
S       26.82634750      14.03413633      11.01963775
Re      22.18179354      18.37822372       9.50396376
Re      21.81463400      13.44976986       9.39524834
Re      20.64034927      16.00758398       9.46368358
Re      23.35607828      15.82040960       9.43552852
S       25.22165861      16.88045436      10.63373435
S       23.69179476      17.66141847       7.87957435
S       23.69226936      13.88962932      10.80261085
S       21.91696932      15.09742338       7.70000000
S       22.07945822      16.73057020      11.19921210
S       20.30415819      17.93836426       8.09660125
S       18.77476894      14.94753922       8.26547775
S       20.30463280      14.16657511      11.01963775
Re      15.66007885      18.51066250       9.50396376
Re      15.29291931      13.58220864       9.39524834
Re      14.11863458      16.14002276       9.46368358
Re      16.83436359      15.95284838       9.43552852
S       18.69994392      17.01289315      10.63373435
S       17.17008006      17.79385725       7.87957435
S       17.17055467      14.02206810      10.80261085
S       15.39525463      15.22986215       7.70000000
S       15.55774353      16.86300898      11.19921210
S       13.78244349      18.07080304       8.09660125
S       12.25305424      15.07997800       8.26547775
S       13.78291809      14.29901389      11.01963775
Re       9.13836415      18.64310129       9.50396376
Re       8.77120461      13.71464742       9.39524834
Re       7.59691988      16.27246154       9.46368358
Re      10.31264889      16.08528717       9.43552852
S       12.17822922      17.14533193      10.63373435
S       10.64836536      17.92629603       7.87957435
S       10.64883996      14.15450688      10.80261085
S        8.87353993      15.36230095       7.70000000
S        9.03602883      16.99544777      11.19921210
S        7.26072880      18.20324183       8.09660125
S        5.73133954      15.21241678       8.26547775
S        7.26120340      14.43145267      11.01963775
Re      84.08677583      22.74537834       9.50396376
Re      83.71961629      17.81692448       9.39524834
Re      82.54533155      20.37473860       9.46368358
Re      85.26106056      20.18756422       9.43552852
S       87.12664090      21.24760898      10.63373435
S       85.59677703      22.02857309       7.87957435
S       85.59725164      18.25678393      10.80261085
S       83.82195161      19.46457800       7.70000000
S       83.98444050      21.09772482      11.19921210
S       82.20914047      22.30551889       8.09660125
S       80.67975122      19.31469383       8.26547775
S       82.20961507      18.53372973      11.01963775
Re      77.56506113      22.87781713       9.50396376
Re      77.19790158      17.94936326       9.39524834
Re      76.02361685      20.50717738       9.46368358
Re      78.73934586      20.32000300       9.43552852
S       80.60492619      21.38004777      10.63373435
S       79.07506235      22.16101187       7.87957435
S       79.07553694      18.38922272      10.80261085
S       77.30023691      19.59701678       7.70000000
S       77.46272580      21.23016360      11.19921210
S       75.68742577      22.43795767       8.09660125
S       74.15803652      19.44713262       8.26547775
S       75.68790038      18.66616852      11.01963775
Re      71.04334643      23.01025590       9.50396376
Re      70.67618690      18.08180205       9.39524834
Re      69.50190216      20.63961616       9.46368358
Re      72.21763117      20.45244178       9.43552852
S       74.08321150      21.51248655      10.63373435
S       72.55334764      22.29345066       7.87957435
S       72.55382225      18.52166150      10.80261085
S       70.77852222      19.72945556       7.70000000
S       70.94101111      21.36260239      11.19921210
S       69.16571108      22.57039645       8.09660125
S       67.63632183      19.57957140       8.26547775
S       69.16618568      18.79860730      11.01963775
Re      64.52163173      23.14269469       9.50396376
Re      64.15447219      18.21424083       9.39524834
Re      62.98018746      20.77205495       9.46368358
Re      65.69591647      20.58488057       9.43552852
S       67.56149680      21.64492533      10.63373435
S       66.03163294      22.42588944       7.87957435
S       66.03210755      18.65410029      10.80261085
S       64.25680751      19.86189435       7.70000000
S       64.41929641      21.49504117      11.19921210
S       62.64399638      22.70283523       8.09660125
S       61.11460713      19.71201019       8.26547775
S       62.64447099      18.93104608      11.01963775
Re      57.99991703      23.27513347       9.50396376
Re      57.63275750      18.34667961       9.39524834
Re      56.45847276      20.90449374       9.46368358
Re      59.17420176      20.71731935       9.43552852
S       61.03978210      21.77736411      10.63373435
S       59.50991825      22.55832822       7.87957435
S       59.51039286      18.78653906      10.80261085
S       57.73509281      19.99433313       7.70000000
S       57.89758172      21.62747995      11.19921210
S       56.12228167      22.83527402       8.09660125
S       54.59289243      19.84444897       8.26547775
S       56.12275628      19.06348486      11.01963775
Re      51.47820234      23.40757225       9.50396376
Re      51.11104280      18.47911839       9.39524834
Re      49.93675807      21.03693251       9.46368358
Re      52.65248708      20.84975814       9.43552852
S       54.51806741      21.90980290      10.63373435
S       52.98820355      22.69076700       7.87957435
S       52.98867815      18.91897785      10.80261085
S       51.21337812      20.12677192       7.70000000
S       51.37586702      21.75991874      11.19921210
S       49.60056698      22.96771279       8.09660125
S       48.07117773      19.97688775       8.26547775
S       49.60104158      19.19592365      11.01963775
Re      44.95648764      23.54001104       9.50396376
Re      44.58932810      18.61155718       9.39524834
Re      43.41504336      21.16937130       9.46368358
Re      46.13077237      20.98219692       9.43552852
S       47.99635271      22.04224168      10.63373435
S       46.46648885      22.82320578       7.87957435
S       46.46696345      19.05141663      10.80261085
S       44.69166342      20.25921070       7.70000000
S       44.85415231      21.89235752      11.19921210
S       43.07885228      23.10015159       8.09660125
S       41.54946303      20.10932653       8.26547775
S       43.07932689      19.32836242      11.01963775
Re      38.43477294      23.67244983       9.50396376
Re      38.06761340      18.74399596       9.39524834
Re      36.89332867      21.30181008       9.46368358
Re      39.60905768      21.11463570       9.43552852
S       41.47463801      22.17468046      10.63373435
S       39.94477416      22.95564457       7.87957435
S       39.94524876      19.18385541      10.80261085
S       38.16994872      20.39164948       7.70000000
S       38.33243762      22.02479630      11.19921210
S       36.55713758      23.23259037       8.09660125
S       35.02774834      20.24176531       8.26547775
S       36.55761219      19.46080122      11.01963775
Re      31.91305824      23.80488860       9.50396376
Re      31.54589871      18.87643475       9.39524834
Re      30.37161397      21.43424886       9.46368358
Re      33.08734298      21.24707448       9.43552852
S       34.95292331      22.30711925      10.63373435
S       33.42305945      23.08808336       7.87957435
S       33.42353406      19.31629420      10.80261085
S       31.64823403      20.52408826       7.70000000
S       31.81072292      22.15723509      11.19921210
S       30.03542289      23.36502915       8.09660125
S       28.50603364      20.37420410       8.26547775
S       30.03589750      19.59324000      11.01963775
Re      25.39134354      23.93732739       9.50396376
Re      25.02418400      19.00887353       9.39524834
Re      23.84989927      21.56668765       9.46368358
Re      26.56562828      21.37951327       9.43552852
S       28.43120861      22.43955803      10.63373435
S       26.90134476      23.22052213       7.87957435
S       26.90181936      19.44873299      10.80261085
S       25.12651932      20.65652705       7.70000000
S       25.28900822      22.28967387      11.19921210
S       23.51370819      23.49746793       8.09660125
S       21.98431894      20.50664289       8.26547775
S       23.51418280      19.72567878      11.01963775
Re      18.86962885      24.06976617       9.50396376
Re      18.50246931      19.14131231       9.39524834
Re      17.32818458      21.69912643       9.46368358
Re      20.04391359      21.51195205       9.43552852
S       21.90949392      22.57199682      10.63373435
S       20.37963006      23.35296092       7.87957435
S       20.38010467      19.58117176      10.80261085
S       18.60480463      20.78896582       7.70000000
S       18.76729353      22.42211265      11.19921210
S       16.99199349      23.62990671       8.09660125
S       15.46260424      20.63908167       8.26547775
S       16.99246809      19.85811756      11.01963775
Re      12.34791415      24.20220496       9.50396376
Re      11.98075461      19.27375109       9.39524834
Re      10.80646988      21.83156521       9.46368358
Re      13.52219889      21.64439084       9.43552852
S       15.38777922      22.70443560      10.63373435
S       13.85791536      23.48539970       7.87957435
S       13.85838996      19.71361055      10.80261085
S       12.08308993      20.92140462       7.70000000
S       12.24557883      22.55455144      11.19921210
S       10.47027880      23.76234550       8.09660125
S        8.94088954      20.77152045       8.26547775
S       10.47075340      19.99055634      11.01963775
Re      87.29632583      28.30448201       9.50396376
Re      86.92916629      23.37602815       9.39524834
Re      85.75488155      25.93384227       9.46368358
Re      88.47061056      25.74666789       9.43552852
S       90.33619090      26.80671265      10.63373435
S       88.80632703      27.58767675       7.87957435
S       88.80680164      23.81588760      10.80261085
S       87.03150161      25.02368167       7.70000000
S       87.19399050      26.65682849      11.19921210
S       85.41869047      27.86462256       8.09660125
S       83.88930122      24.87379750       8.26547775
S       85.41916507      24.09283340      11.01963775
Re      80.77461113      28.43692079       9.50396376
Re      80.40745158      23.50846693       9.39524834
Re      79.23316685      26.06628105       9.46368358
Re      81.94889586      25.87910667       9.43552852
S       83.81447619      26.93915144      10.63373435
S       82.28461235      27.72011554       7.87957435
S       82.28508694      23.94832638      10.80261085
S       80.50978691      25.15612045       7.70000000
S       80.67227580      26.78926727      11.19921210
S       78.89697577      27.99706134       8.09660125
S       77.36758652      25.00623629       8.26547775
S       78.89745038      24.22527219      11.01963775
Re      74.25289643      28.56935957       9.50396376
Re      73.88573690      23.64090572       9.39524834
Re      72.71145216      26.19871983       9.46368358
Re      75.42718117      26.01154545       9.43552852
S       77.29276150      27.07159022      10.63373435
S       75.76289764      27.85255433       7.87957435
S       75.76337225      24.08076517      10.80261085
S       73.98807222      25.28855923       7.70000000
S       74.15056111      26.92170606      11.19921210
S       72.37526108      28.12950012       8.09660125
S       70.84587183      25.13867507       8.26547775
S       72.37573568      24.35771097      11.01963775
Re      67.73118173      28.70179836       9.50396376
Re      67.36402219      23.77334450       9.39524834
Re      66.18973746      26.33115862       9.46368358
Re      68.90546647      26.14398424       9.43552852
S       70.77104680      27.20402900      10.63373435
S       69.24118294      27.98499311       7.87957435
S       69.24165755      24.21320396      10.80261085
S       67.46635751      25.42099801       7.70000000
S       67.62884641      27.05414484      11.19921210
S       65.85354638      28.26193890       8.09660125
S       64.32415713      25.27111386       8.26547775
S       65.85402099      24.49014975      11.01963775
Re      61.20946703      28.83423714       9.50396376
Re      60.84230750      23.90578328       9.39524834
Re      59.66802276      26.46359740       9.46368358
Re      62.38375176      26.27642302       9.43552852
S       64.24933210      27.33646778      10.63373435
S       62.71946825      28.11743189       7.87957435
S       62.71994286      24.34564273      10.80261085
S       60.94464281      25.55343680       7.70000000
S       61.10713172      27.18658362      11.19921210
S       59.33183167      28.39437769       8.09660125
S       57.80244243      25.40355264       8.26547775
S       59.33230628      24.62258853      11.01963775
Re      54.68775234      28.96667592       9.50396376
Re      54.32059280      24.03822206       9.39524834
Re      53.14630807      26.59603618       9.46368358
Re      55.86203708      26.40886181       9.43552852
S       57.72761741      27.46890657      10.63373435
S       56.19775355      28.24987067       7.87957435
S       56.19822815      24.47808152      10.80261085
S       54.42292812      25.68587559       7.70000000
S       54.58541702      27.31902240      11.19921210
S       52.81011698      28.52681646       8.09660125
S       51.28072773      25.53599142       8.26547775
S       52.81059158      24.75502732      11.01963775
Re      48.16603764      29.09911471       9.50396376
Re      47.79887810      24.17066085       9.39524834
Re      46.62459336      26.72847497       9.46368358
Re      49.34032237      26.54130059       9.43552852
S       51.20590271      27.60134535      10.63373435
S       49.67603885      28.38230945       7.87957435
S       49.67651345      24.61052030      10.80261085
S       47.90121342      25.81831437       7.70000000
S       48.06370231      27.45146119      11.19921210
S       46.28840228      28.65925526       8.09660125
S       44.75901303      25.66843020       8.26547775
S       46.28887689      24.88746609      11.01963775
Re      41.64432294      29.23155349       9.50396376
Re      41.27716340      24.30309963       9.39524834
Re      40.10287867      26.86091375       9.46368358
Re      42.81860768      26.67373937       9.43552852
S       44.68418801      27.73378413      10.63373435
S       43.15432416      28.51474824       7.87957435
S       43.15479876      24.74295908      10.80261085
S       41.37949872      25.95075315       7.70000000
S       41.54198762      27.58389997      11.19921210
S       39.76668758      28.79169404       8.09660125
S       38.23729834      25.80086898       8.26547775
S       39.76716219      25.01990489      11.01963775
Re      35.12260824      29.36399227       9.50396376
Re      34.75544871      24.43553842       9.39524834
Re      33.58116397      26.99335253       9.46368358
Re      36.29689298      26.80617815       9.43552852
S       38.16247331      27.86622292      10.63373435
S       36.63260945      28.64718703       7.87957435
S       36.63308406      24.87539787      10.80261085
S       34.85778403      26.08319193       7.70000000
S       35.02027292      27.71633876      11.19921210
S       33.24497289      28.92413282       8.09660125
S       31.71558364      25.93330777       8.26547775
S       33.24544750      25.15234367      11.01963775
Re      28.60089354      29.49643106       9.50396376
Re      28.23373400      24.56797720       9.39524834
Re      27.05944927      27.12579132       9.46368358
Re      29.77517828      26.93861694       9.43552852
S       31.64075861      27.99866170      10.63373435
S       30.11089476      28.77962580       7.87957435
S       30.11136936      25.00783666      10.80261085
S       28.33606932      26.21563072       7.70000000
S       28.49855822      27.84877754      11.19921210
S       26.72325819      29.05657160       8.09660125
S       25.19386894      26.06574656       8.26547775
S       26.72373280      25.28478245      11.01963775
Re      22.07917885      29.62886984       9.50396376
Re      21.71201931      24.70041598       9.39524834
Re      20.53773458      27.25823010       9.46368358
Re      23.25346359      27.07105572       9.43552852
S       25.11904392      28.13110049      10.63373435
S       23.58918006      28.91206459       7.87957435
S       23.58965467      25.14027543      10.80261085
S       21.81435463      26.34806949       7.70000000
S       21.97684353      27.98121632      11.19921210
S       20.20154349      29.18901038       8.09660125
S       18.67215424      26.19818534       8.26547775
S       20.20201809      25.41722123      11.01963775
Re      15.55746415      29.76130863       9.50396376
Re      15.19030461      24.83285476       9.39524834
Re      14.01601988      27.39066888       9.46368358
Re      16.73174889      27.20349451       9.43552852
S       18.59732922      28.26353927      10.63373435
S       17.06746536      29.04450337       7.87957435
S       17.06793996      25.27271422      10.80261085
S       15.29263993      26.48050829       7.70000000
S       15.45512883      28.11365510      11.19921210
S       13.67982880      29.32144917       8.09660125
S       12.15043954      26.33062412       8.26547775
S       13.68030340      25.54966001      11.01963775
Re      90.50587583      33.86358568       9.50396376
Re      90.13871629      28.93513182       9.39524834
Re      88.96443155      31.49294594       9.46368358
Re      91.68016056      31.30577156       9.43552852
S       93.54574090      32.36581632      10.63373435
S       92.01587703      33.14678042       7.87957435
S       92.01635164      29.37499127      10.80261085
S       90.24105161      30.58278534       7.70000000
S       90.40354050      32.21593216      11.19921210
S       88.62824047      33.42372623       8.09660125
S       87.09885122      30.43290117       8.26547775
S       88.62871507      29.65193707      11.01963775
Re      83.98416113      33.99602446       9.50396376
Re      83.61700158      29.06757060       9.39524834
Re      82.44271685      31.62538472       9.46368358
Re      85.15844586      31.43821034       9.43552852
S       87.02402619      32.49825511      10.63373435
S       85.49416235      33.27921921       7.87957435
S       85.49463694      29.50743005      10.80261085
S       83.71933691      30.71522412       7.70000000
S       83.88182580      32.34837094      11.19921210
S       82.10652577      33.55616501       8.09660125
S       80.57713652      30.56533996       8.26547775
S       82.10700038      29.78437586      11.01963775
Re      77.46244643      34.12846324       9.50396376
Re      77.09528690      29.20000939       9.39524834
Re      75.92100216      31.75782350       9.46368358
Re      78.63673117      31.57064912       9.43552852
S       80.50231150      32.63069388      10.63373435
S       78.97244764      33.41165799       7.87957435
S       78.97292225      29.63986884      10.80261085
S       77.19762222      30.84766290       7.70000000
S       77.36011111      32.48080973      11.19921210
S       75.58481108      33.68860379       8.09660125
S       74.05542183      30.69777874       8.26547775
S       75.58528568      29.91681464      11.01963775
Re      70.94073173      34.26090203       9.50396376
Re      70.57357219      29.33244817       9.39524834
Re      69.39928746      31.89026229       9.46368358
Re      72.11501647      31.70308791       9.43552852
S       73.98059680      32.76313267      10.63373435
S       72.45073294      33.54409678       7.87957435
S       72.45120755      29.77230763      10.80261085
S       70.67590751      30.98010168       7.70000000
S       70.83839641      32.61324851      11.19921210
S       69.06309638      33.82104257       8.09660125
S       67.53370713      30.83021753       8.26547775
S       69.06357099      30.04925342      11.01963775
Re      64.41901703      34.39334081       9.50396376
Re      64.05185750      29.46488695       9.39524834
Re      62.87757276      32.02270107       9.46368358
Re      65.59330176      31.83552669       9.43552852
S       67.45888210      32.89557145      10.63373435
S       65.92901825      33.67653556       7.87957435
S       65.92949286      29.90474640      10.80261085
S       64.15419281      31.11254047       7.70000000
S       64.31668172      32.74568729      11.19921210
S       62.54138167      33.95348135       8.09660125
S       61.01199243      30.96265631       8.26547775
S       62.54185628      30.18169220      11.01963775
Re      57.89730234      34.52577959       9.50396376
Re      57.53014280      29.59732573       9.39524834
Re      56.35585807      32.15513985       9.46368358
Re      59.07158708      31.96796548       9.43552852
S       60.93716741      33.02801024      10.63373435
S       59.40730355      33.80897434       7.87957435
S       59.40777815      30.03718519      10.80261085
S       57.63247812      31.24497926       7.70000000
S       57.79496702      32.87812607      11.19921210
S       56.01966698      34.08592013       8.09660125
S       54.49027773      31.09509509       8.26547775
S       56.02014158      30.31413099      11.01963775
Re      51.37558764      34.65821838       9.50396376
Re      51.00842810      29.72976452       9.39524834
Re      49.83414336      32.28757864       9.46368358
Re      52.54987237      32.10040426       9.43552852
S       54.41545271      33.16044902      10.63373435
S       52.88558885      33.94141312       7.87957435
S       52.88606345      30.16962397      10.80261085
S       51.11076342      31.37741804       7.70000000
S       51.27325231      33.01056486      11.19921210
S       49.49795228      34.21835893       8.09660125
S       47.96856303      31.22753387       8.26547775
S       49.49842689      30.44656976      11.01963775
Re      44.85387294      34.79065716       9.50396376
Re      44.48671340      29.86220329       9.39524834
Re      43.31242867      32.42001741       9.46368358
Re      46.02815768      32.23284304       9.43552852
S       47.89373801      33.29288780      10.63373435
S       46.36387416      34.07385191       7.87957435
S       46.36434876      30.30206275      10.80261085
S       44.58904872      31.50985682       7.70000000
S       44.75153762      33.14300364      11.19921210
S       42.97623758      34.35079771       8.09660125
S       41.44684834      31.35997265       8.26547775
S       42.97671219      30.57900856      11.01963775
Re      38.33215824      34.92309594       9.50396376
Re      37.96499871      29.99464209       9.39524834
Re      36.79071397      32.55245620       9.46368358
Re      39.50644298      32.36528182       9.43552852
S       41.37202331      33.42532658      10.63373435
S       39.84215945      34.20629069       7.87957435
S       39.84263406      30.43450154      10.80261085
S       38.06733403      31.64229560       7.70000000
S       38.22982292      33.27544243      11.19921210
S       36.45452289      34.48323649       8.09660125
S       34.92513364      31.49241144       8.26547775
S       36.45499750      30.71144733      11.01963775
Re      31.81044354      35.05553473       9.50396376
Re      31.44328400      30.12708087       9.39524834
Re      30.26899927      32.68489499       9.46368358
Re      32.98472828      32.49772061       9.43552852
S       34.85030861      33.55776537      10.63373435
S       33.32044476      34.33872947       7.87957435
S       33.32091936      30.56694033      10.80261085
S       31.54561932      31.77473438       7.70000000
S       31.70810822      33.40788121      11.19921210
S       29.93280819      34.61567527       8.09660125
S       28.40341894      31.62485023       8.26547775
S       29.93328280      30.84388612      11.01963775
Re      25.28872885      35.18797350       9.50396376
Re      24.92156931      30.25951965       9.39524834
Re      23.74728458      32.81733377       9.46368358
Re      26.46301359      32.63015939       9.43552852
S       28.32859392      33.69020416      10.63373435
S       26.79873006      34.47116826       7.87957435
S       26.79920467      30.69937910      10.80261085
S       25.02390463      31.90717316       7.70000000
S       25.18639353      33.54031999      11.19921210
S       23.41109349      34.74811405       8.09660125
S       21.88170424      31.75728901       8.26547775
S       23.41156809      30.97632490      11.01963775
Re      18.76701415      35.32041230       9.50396376
Re      18.39985461      30.39195843       9.39524834
Re      17.22556988      32.94977255       9.46368358
Re      19.94129889      32.76259818       9.43552852
S       21.80687922      33.82264294      10.63373435
S       20.27701536      34.60360704       7.87957435
S       20.27748996      30.83181789      10.80261085
S       18.50218993      32.03961196       7.70000000
S       18.66467883      33.67275877      11.19921210
S       16.88937880      34.88055284       8.09660125
S       15.35998954      31.88972779       8.26547775
S       16.88985340      31.10876368      11.01963775
Re      93.71542583      39.42268935       9.50396376
Re      93.34826629      34.49423549       9.39524834
Re      92.17398155      37.05204961       9.46368358
Re      94.88971056      36.86487523       9.43552852
S       96.75529090      37.92491999      10.63373435
S       95.22542703      38.70588409       7.87957435
S       95.22590164      34.93409494      10.80261085
S       93.45060161      36.14188901       7.70000000
S       93.61309050      37.77503583      11.19921210
S       91.83779047      38.98282989       8.09660125
S       90.30840122      35.99200484       8.26547775
S       91.83826507      35.21104074      11.01963775
Re      87.19371113      39.55512813       9.50396376
Re      86.82655158      34.62667427       9.39524834
Re      85.65226685      37.18448839       9.46368358
Re      88.36799586      36.99731401       9.43552852
S       90.23357619      38.05735878      10.63373435
S       88.70371235      38.83832288       7.87957435
S       88.70418694      35.06653372      10.80261085
S       86.92888691      36.27432779       7.70000000
S       87.09137580      37.90747461      11.19921210
S       85.31607577      39.11526868       8.09660125
S       83.78668652      36.12444363       8.26547775
S       85.31655038      35.34347953      11.01963775
Re      80.67199643      39.68756691       9.50396376
Re      80.30483690      34.75911306       9.39524834
Re      79.13055216      37.31692717       9.46368358
Re      81.84628117      37.12975279       9.43552852
S       83.71186150      38.18979755      10.63373435
S       82.18199764      38.97076166       7.87957435
S       82.18247225      35.19897251      10.80261085
S       80.40717222      36.40676657       7.70000000
S       80.56966111      38.03991340      11.19921210
S       78.79436108      39.24770746       8.09660125
S       77.26497183      36.25688241       8.26547775
S       78.79483568      35.47591831      11.01963775
Re      74.15028173      39.82000570       9.50396376
Re      73.78312219      34.89155184       9.39524834
Re      72.60883746      37.44936596       9.46368358
Re      75.32456647      37.26219158       9.43552852
S       77.19014680      38.32223634      10.63373435
S       75.66028294      39.10320045       7.87957435
S       75.66075755      35.33141129      10.80261085
S       73.88545751      36.53920535       7.70000000
S       74.04794641      38.17235218      11.19921210
S       72.27264638      39.38014624       8.09660125
S       70.74325713      36.38932120       8.26547775
S       72.27312099      35.60835709      11.01963775
Re      67.62856703      39.95244448       9.50396376
Re      67.26140750      35.02399062       9.39524834
Re      66.08712276      37.58180474       9.46368358
Re      68.80285176      37.39463036       9.43552852
S       70.66843210      38.45467512      10.63373435
S       69.13856825      39.23563923       7.87957435
S       69.13904286      35.46385007      10.80261085
S       67.36374281      36.67164414       7.70000000
S       67.52623172      38.30479096      11.19921210
S       65.75093167      39.51258502       8.09660125
S       64.22154243      36.52175998       8.26547775
S       65.75140628      35.74079587      11.01963775
Re      61.10685234      40.08488326       9.50396376
Re      60.73969280      35.15642940       9.39524834
Re      59.56540807      37.71424352       9.46368358
Re      62.28113708      37.52706915       9.43552852
S       64.14671741      38.58711391      10.63373435
S       62.61685355      39.36807801       7.87957435
S       62.61732815      35.59628886      10.80261085
S       60.84202812      36.80408292       7.70000000
S       61.00451702      38.43722974      11.19921210
S       59.22921698      39.64502380       8.09660125
S       57.69982773      36.65419876       8.26547775
S       59.22969158      35.87323465      11.01963775
Re      54.58513764      40.21732205       9.50396376
Re      54.21797810      35.28886819       9.39524834
Re      53.04369336      37.84668231       9.46368358
Re      55.75942237      37.65950793       9.43552852
S       57.62500271      38.71955269      10.63373435
S       56.09513885      39.50051679       7.87957435
S       56.09561345      35.72872764      10.80261085
S       54.32031342      36.93652171       7.70000000
S       54.48280231      38.56966853      11.19921210
S       52.70750228      39.77746260       8.09660125
S       51.17811303      36.78663754       8.26547775
S       52.70797689      36.00567343      11.01963775
Re      48.06342294      40.34976083       9.50396376
Re      47.69626340      35.42130696       9.39524834
Re      46.52197867      37.97912108       9.46368358
Re      49.23770768      37.79194671       9.43552852
S       51.10328801      38.85199147      10.63373435
S       49.57342416      39.63295558       7.87957435
S       49.57389876      35.86116642      10.80261085
S       47.79859872      37.06896049       7.70000000
S       47.96108762      38.70210731      11.19921210
S       46.18578758      39.90990138       8.09660125
S       44.65639834      36.91907632       8.26547775
S       46.18626219      36.13811223      11.01963775
Re      41.54170824      40.48219961       9.50396376
Re      41.17454871      35.55374576       9.39524834
Re      40.00026397      38.11155987       9.46368358
Re      42.71599298      37.92438549       9.43552852
S       44.58157331      38.98443025      10.63373435
S       43.05170945      39.76539436       7.87957435
S       43.05218406      35.99360521      10.80261085
S       41.27688403      37.20139927       7.70000000
S       41.43937292      38.83454610      11.19921210
S       39.66407289      40.04234016       8.09660125
S       38.13468364      37.05151511       8.26547775
S       39.66454750      36.27055100      11.01963775
Re      35.01999354      40.61463840       9.50396376
Re      34.65283400      35.68618454       9.39524834
Re      33.47854927      38.24399866       9.46368358
Re      36.19427828      38.05682428       9.43552852
S       38.05985861      39.11686904      10.63373435
S       36.52999476      39.89783314       7.87957435
S       36.53046936      36.12604399      10.80261085
S       34.75516932      37.33383805       7.70000000
S       34.91765822      38.96698488      11.19921210
S       33.14235819      40.17477894       8.09660125
S       31.61296894      37.18395390       8.26547775
S       33.14283280      36.40298979      11.01963775
Re      28.49827885      40.74707717       9.50396376
Re      28.13111931      35.81862332       9.39524834
Re      26.95683458      38.37643744       9.46368358
Re      29.67256359      38.18926306       9.43552852
S       31.53814392      39.24930783      10.63373435
S       30.00828006      40.03027193       7.87957435
S       30.00875467      36.25848277      10.80261085
S       28.23345463      37.46627683       7.70000000
S       28.39594353      39.09942366      11.19921210
S       26.62064349      40.30721772       8.09660125
S       25.09125424      37.31639268       8.26547775
S       26.62111809      36.53542857      11.01963775
Re      21.97656415      40.87951597       9.50396376
Re      21.60940461      35.95106210       9.39524834
Re      20.43511988      38.50887622       9.46368358
Re      23.15084889      38.32170185       9.43552852
S       25.01642922      39.38174661      10.63373435
S       23.48656536      40.16271071       7.87957435
S       23.48703996      36.39092156      10.80261085
S       21.71173993      37.59871562       7.70000000
S       21.87422883      39.23186244      11.19921210
S       20.09892880      40.43965651       8.09660125
S       18.56953954      37.44883146       8.26547775
S       20.09940340      36.66786735      11.01963775
Re      96.92497583      44.98179302       9.50396376
Re      96.55781629      40.05333915       9.39524834
Re      95.38353155      42.61115328       9.46368358
Re      98.09926056      42.42397890       9.43552852
S       99.96484090      43.48402366      10.63373435
S       98.43497703      44.26498776       7.87957435
S       98.43545164      40.49319861      10.80261085
S       96.66015161      41.70099268       7.70000000
S       96.82264050      43.33413950      11.19921210
S       95.04734047      44.54193356       8.09660125
S       93.51795122      41.55110851       8.26547775
S       95.04781507      40.77014441      11.01963775
Re      90.40326113      45.11423180       9.50396376
Re      90.03610158      40.18577794       9.39524834
Re      88.86181685      42.74359206       9.46368358
Re      91.57754586      42.55641768       9.43552852
S       93.44312619      43.61646244      10.63373435
S       91.91326235      44.39742655       7.87957435
S       91.91373694      40.62563739      10.80261085
S       90.13843691      41.83343146       7.70000000
S       90.30092580      43.46657828      11.19921210
S       88.52562577      44.67437235       8.09660125
S       86.99623652      41.68354730       8.26547775
S       88.52610038      40.90258319      11.01963775
Re      83.88154643      45.24667058       9.50396376
Re      83.51438690      40.31821673       9.39524834
Re      82.34010216      42.87603084       9.46368358
Re      85.05583117      42.68885646       9.43552852
S       86.92141150      43.74890122      10.63373435
S       85.39154764      44.52986533       7.87957435
S       85.39202225      40.75807618      10.80261085
S       83.61672222      41.96587024       7.70000000
S       83.77921111      43.59901707      11.19921210
S       82.00391108      44.80681113       8.09660125
S       80.47452183      41.81598607       8.26547775
S       82.00438568      41.03502198      11.01963775
Re      77.35983173      45.37910936       9.50396376
Re      76.99267219      40.45065551       9.39524834
Re      75.81838746      43.00846963       9.46368358
Re      78.53411647      42.82129524       9.43552852
S       80.39969680      43.88134001      10.63373435
S       78.86983294      44.66230412       7.87957435
S       78.87030755      40.89051496      10.80261085
S       77.09500751      42.09830902       7.70000000
S       77.25749641      43.73145585      11.19921210
S       75.48219638      44.93924991       8.09660125
S       73.95280713      41.94842487       8.26547775
S       75.48267099      41.16746076      11.01963775
Re      70.83811703      45.51154815       9.50396376
Re      70.47095750      40.58309429       9.39524834
Re      69.29667276      43.14090841       9.46368358
Re      72.01240176      42.95373403       9.43552852
S       73.87798210      44.01377879      10.63373435
S       72.34811825      44.79474290       7.87957435
S       72.34859286      41.02295374      10.80261085
S       70.57329281      42.23074781       7.70000000
S       70.73578172      43.86389463      11.19921210
S       68.96048167      45.07168869       8.09660125
S       67.43109243      42.08086365       8.26547775
S       68.96095628      41.29989954      11.01963775
Re      64.31640234      45.64398693       9.50396376
Re      63.94924280      40.71553307       9.39524834
Re      62.77495807      43.27334719       9.46368358
Re      65.49068708      43.08617282       9.43552852
S       67.35626741      44.14621758      10.63373435
S       65.82640355      44.92718168       7.87957435
S       65.82687815      41.15539253      10.80261085
S       64.05157812      42.36318659       7.70000000
S       64.21406702      43.99633341      11.19921210
S       62.43876698      45.20412747       8.09660125
S       60.90937773      42.21330243       8.26547775
S       62.43924158      41.43233832      11.01963775
Re      57.79468764      45.77642572       9.50396376
Re      57.42752810      40.84797185       9.39524834
Re      56.25324336      43.40578598       9.46368358
Re      58.96897237      43.21861160       9.43552852
S       60.83455271      44.27865636      10.63373435
S       59.30468885      45.05962046       7.87957435
S       59.30516345      41.28783131      10.80261085
S       57.52986342      42.49562538       7.70000000
S       57.69235231      44.12877220      11.19921210
S       55.91705228      45.33656626       8.09660125
S       54.38766303      42.34574121       8.26547775
S       55.91752689      41.56477710      11.01963775
Re      51.27297294      45.90886450       9.50396376
Re      50.90581340      40.98041063       9.39524834
Re      49.73152867      43.53822475       9.46368358
Re      52.44725768      43.35105038       9.43552852
S       54.31283801      44.41109514      10.63373435
S       52.78297416      45.19205925       7.87957435
S       52.78344876      41.42027009      10.80261085
S       51.00814872      42.62806416       7.70000000
S       51.17063762      44.26121098      11.19921210
S       49.39533758      45.46900505       8.09660125
S       47.86594834      42.47817999       8.26547775
S       49.39581219      41.69721589      11.01963775
Re      44.75125824      46.04130328       9.50396376
Re      44.38409871      41.11284943       9.39524834
Re      43.20981397      43.67066354       9.46368358
Re      45.92554298      43.48348916       9.43552852
S       47.79112331      44.54353392      10.63373435
S       46.26125945      45.32449803       7.87957435
S       46.26173406      41.55270888      10.80261085
S       44.48643403      42.76050294       7.70000000
S       44.64892292      44.39364977      11.19921210
S       42.87362289      45.60144383       8.09660125
S       41.34423364      42.61061877       8.26547775
S       42.87409750      41.82965467      11.01963775
Re      38.22954354      46.17374207       9.50396376
Re      37.86238400      41.24528821       9.39524834
Re      36.68809927      43.80310233       9.46368358
Re      39.40382828      43.61592794       9.43552852
S       41.26940861      44.67597271      10.63373435
S       39.73954476      45.45693681       7.87957435
S       39.74001936      41.68514766      10.80261085
S       37.96471932      42.89294172       7.70000000
S       38.12720822      44.52608855      11.19921210
S       36.35190819      45.73388261       8.09660125
S       34.82251894      42.74305757       8.26547775
S       36.35238280      41.96209346      11.01963775
Re      31.70782885      46.30618084       9.50396376
Re      31.34066931      41.37772699       9.39524834
Re      30.16638458      43.93554111       9.46368358
Re      32.88211359      43.74836673       9.43552852
S       34.74769392      44.80841149      10.63373435
S       33.21783006      45.58937560       7.87957435
S       33.21830467      41.81758644      10.80261085
S       31.44300463      43.02538050       7.70000000
S       31.60549353      44.65852733      11.19921210
S       29.83019349      45.86632139       8.09660125
S       28.30080424      42.87549635       8.26547775
S       29.83066809      42.09453224      11.01963775
Re      25.18611415      46.43861964       9.50396376
Re      24.81895461      41.51016577       9.39524834
Re      23.64466988      44.06797989       9.46368358
Re      26.36039889      43.88080552       9.43552852
S       28.22597922      44.94085028      10.63373435
S       26.69611536      45.72181437       7.87957435
S       26.69658996      41.95002523      10.80261085
S       24.92128993      43.15781929       7.70000000
S       25.08377883      44.79096611      11.19921210
S       23.30847880      45.99876018       8.09660125
S       21.77908954      43.00793513       8.26547775
S       23.30895340      42.22697102      11.01963775
Re     100.13452583      50.54089669       9.50396376
Re      99.76736629      45.61244282       9.39524834
Re      98.59308155      48.17025694       9.46368358
Re     101.30881056      47.98308257       9.43552852
S      103.17439090      49.04312733      10.63373435
S      101.64452703      49.82409143       7.87957435
S      101.64500164      46.05230228      10.80261085
S       99.86970161      47.26009635       7.70000000
S      100.03219050      48.89324317      11.19921210
S       98.25689047      50.10103723       8.09660125
S       96.72750122      47.11021218       8.26547775
S       98.25736507      46.32924808      11.01963775
Re      93.61281113      50.67333547       9.50396376
Re      93.24565158      45.74488161       9.39524834
Re      92.07136685      48.30269573       9.46368358
Re      94.78709586      48.11552135       9.43552852
S       96.65267619      49.17556611      10.63373435
S       95.12281235      49.95653022       7.87957435
S       95.12328694      46.18474106      10.80261085
S       93.34798691      47.39253513       7.70000000
S       93.51047580      49.02568195      11.19921210
S       91.73517577      50.23347602       8.09660125
S       90.20578652      47.24265097       8.26547775
S       91.73565038      46.46168686      11.01963775
Re      87.09109643      50.80577425       9.50396376
Re      86.72393690      45.87732039       9.39524834
Re      85.54965216      48.43513451       9.46368358
Re      88.26538117      48.24796013       9.43552852
S       90.13096150      49.30800489      10.63373435
S       88.60109764      50.08896900       7.87957435
S       88.60157225      46.31717985      10.80261085
S       86.82627222      47.52497391       7.70000000
S       86.98876111      49.15812074      11.19921210
S       85.21346108      50.36591480       8.09660125
S       83.68407183      47.37508974       8.26547775
S       85.21393568      46.59412565      11.01963775
Re      80.56938173      50.93821303       9.50396376
Re      80.20222219      46.00975918       9.39524834
Re      79.02793746      48.56757330       9.46368358
Re      81.74366647      48.38039891       9.43552852
S       83.60924680      49.44044368      10.63373435
S       82.07938294      50.22140779       7.87957435
S       82.07985755      46.44961863      10.80261085
S       80.30455751      47.65741269       7.70000000
S       80.46704641      49.29055952      11.19921210
S       78.69174638      50.49835358       8.09660125
S       77.16235713      47.50752854       8.26547775
S       78.69222099      46.72656443      11.01963775
Re      74.04766703      51.07065182       9.50396376
Re      73.68050750      46.14219796       9.39524834
Re      72.50622276      48.70001208       9.46368358
Re      75.22195176      48.51283770       9.43552852
S       77.08753210      49.57288246      10.63373435
S       75.55766825      50.35384657       7.87957435
S       75.55814286      46.58205741      10.80261085
S       73.78284281      47.78985148       7.70000000
S       73.94533172      49.42299830      11.19921210
S       72.17003167      50.63079236       8.09660125
S       70.64064243      47.63996732       8.26547775
S       72.17050628      46.85900321      11.01963775
Re      67.52595234      51.20309060       9.50396376
Re      67.15879280      46.27463674       9.39524834
Re      65.98450807      48.83245086       9.46368358
Re      68.70023708      48.64527648       9.43552852
S       70.56581741      49.70532125      10.63373435
S       69.03595355      50.48628535       7.87957435
S       69.03642815      46.71449620      10.80261085
S       67.26112812      47.92229026       7.70000000
S       67.42361702      49.55543708      11.19921210
S       65.64831698      50.76323114       8.09660125
S       64.11892773      47.77240610       8.26547775
S       65.64879158      46.99144199      11.01963775
Re      61.00423764      51.33552939       9.50396376
Re      60.63707810      46.40707552       9.39524834
Re      59.46279336      48.96488964       9.46368358
Re      62.17852237      48.77771527       9.43552852
S       64.04410271      49.83776003      10.63373435
S       62.51423885      50.61872413       7.87957435
S       62.51471345      46.84693498      10.80261085
S       60.73941342      48.05472905       7.70000000
S       60.90190231      49.68787587      11.19921210
S       59.12660228      50.89566993       8.09660125
S       57.59721303      47.90484488       8.26547775
S       59.12707689      47.12388077      11.01963775
Re      54.48252294      51.46796817       9.50396376
Re      54.11536340      46.53951430       9.39524834
Re      52.94107867      49.09732842       9.46368358
Re      55.65680768      48.91015405       9.43552852
S       57.52238801      49.97019881      10.63373435
S       55.99252416      50.75116292       7.87957435
S       55.99299876      46.97937376      10.80261085
S       54.21769872      48.18716783       7.70000000
S       54.38018762      49.82031464      11.19921210
S       52.60488758      51.02810872       8.09660125
S       51.07549834      48.03728366       8.26547775
S       52.60536219      47.25631956      11.01963775
Re      47.96080824      51.60040695       9.50396376
Re      47.59364871      46.67195310       9.39524834
Re      46.41936397      49.22976721       9.46368358
Re      49.13509298      49.04259283       9.43552852
S       51.00067331      50.10263759      10.63373435
S       49.47080945      50.88360170       7.87957435
S       49.47128406      47.11181255      10.80261085
S       47.69598403      48.31960661       7.70000000
S       47.85847292      49.95275344      11.19921210
S       46.08317289      51.16054750       8.09660125
S       44.55378364      48.16972244       8.26547775
S       46.08364750      47.38875834      11.01963775
Re      41.43909354      51.73284573       9.50396376
Re      41.07193400      46.80439188       9.39524834
Re      39.89764927      49.36220600       9.46368358
Re      42.61337828      49.17503161       9.43552852
S       44.47895861      50.23507638      10.63373435
S       42.94909476      51.01604048       7.87957435
S       42.94956936      47.24425133      10.80261085
S       41.17426932      48.45204539       7.70000000
S       41.33675822      50.08519222      11.19921210
S       39.56145819      51.29298628       8.09660125
S       38.03206894      48.30216124       8.26547775
S       39.56193280      47.52119713      11.01963775
Re      34.91737885      51.86528451       9.50396376
Re      34.55021931      46.93683066       9.39524834
Re      33.37593458      49.49464478       9.46368358
Re      36.09166359      49.30747040       9.43552852
S       37.95724392      50.36751516      10.63373435
S       36.42738006      51.14847927       7.87957435
S       36.42785467      47.37669011      10.80261085
S       34.65255463      48.58448417       7.70000000
S       34.81504353      50.21763100      11.19921210
S       33.03974349      51.42542506       8.09660125
S       31.51035424      48.43460002       8.26547775
S       33.04021809      47.65363591      11.01963775
Re      28.39566415      51.99772331       9.50396376
Re      28.02850461      47.06926944       9.39524834
Re      26.85421988      49.62708356       9.46368358
Re      29.56994889      49.43990918       9.43552852
S       31.43552922      50.49995395      10.63373435
S       29.90566536      51.28091804       7.87957435
S       29.90613996      47.50912890      10.80261085
S       28.13083993      48.71692296       7.70000000
S       28.29332883      50.35006978      11.19921210
S       26.51802880      51.55786385       8.09660125
S       24.98863954      48.56703880       8.26547775
S       26.51850340      47.78607469      11.01963775
Re     103.34407583      56.10000036       9.50396376
Re     102.97691629      51.17154649       9.39524834
Re     101.80263155      53.72936061       9.46368358
Re     104.51836056      53.54218624       9.43552852
S      106.38394090      54.60223100      10.63373435
S      104.85407703      55.38319510       7.87957435
S      104.85455164      51.61140595      10.80261085
S      103.07925161      52.81920002       7.70000000
S      103.24174050      54.45234684      11.19921210
S      101.46644047      55.66014090       8.09660125
S       99.93705122      52.66931585       8.26547775
S      101.46691507      51.88835175      11.01963775
Re      96.82236113      56.23243914       9.50396376
Re      96.45520158      51.30398528       9.39524834
Re      95.28091685      53.86179940       9.46368358
Re      97.99664586      53.67462502       9.43552852
S       99.86222619      54.73466978      10.63373435
S       98.33236235      55.51563389       7.87957435
S       98.33283694      51.74384473      10.80261085
S       96.55753691      52.95163880       7.70000000
S       96.72002580      54.58478562      11.19921210
S       94.94472577      55.79257969       8.09660125
S       93.41533652      52.80175463       8.26547775
S       94.94520038      52.02079053      11.01963775
Re      90.30064643      56.36487792       9.50396376
Re      89.93348690      51.43642406       9.39524834
Re      88.75920216      53.99423818       9.46368358
Re      91.47493117      53.80706380       9.43552852
S       93.34051150      54.86710856      10.63373435
S       91.81064764      55.64807267       7.87957435
S       91.81112225      51.87628352      10.80261085
S       90.03582222      53.08407758       7.70000000
S       90.19831111      54.71722441      11.19921210
S       88.42301108      55.92501847       8.09660125
S       86.89362183      52.93419341       8.26547775
S       88.42348568      52.15322932      11.01963775
Re      83.77893173      56.49731670       9.50396376
Re      83.41177219      51.56886285       9.39524834
Re      82.23748746      54.12667697       9.46368358
Re      84.95321647      53.93950258       9.43552852
S       86.81879680      54.99954735      10.63373435
S       85.28893294      55.78051146       7.87957435
S       85.28940755      52.00872230      10.80261085
S       83.51410751      53.21651636       7.70000000
S       83.67659641      54.84966319      11.19921210
S       81.90129638      56.05745725       8.09660125
S       80.37190713      53.06663221       8.26547775
S       81.90177099      52.28566810      11.01963775
Re      77.25721703      56.62975549       9.50396376
Re      76.89005750      51.70130163       9.39524834
Re      75.71577276      54.25911575       9.46368358
Re      78.43150176      54.07194137       9.43552852
S       80.29708210      55.13198613      10.63373435
S       78.76721825      55.91295023       7.87957435
S       78.76769286      52.14116108      10.80261085
S       76.99239281      53.34895515       7.70000000
S       77.15488172      54.98210197      11.19921210
S       75.37958167      56.18989603       8.09660125
S       73.85019243      53.19907099       8.26547775
S       75.38005628      52.41810688      11.01963775
Re      70.73550234      56.76219427       9.50396376
Re      70.36834280      51.83374041       9.39524834
Re      69.19405807      54.39155453       9.46368358
Re      71.90978708      54.20438015       9.43552852
S       73.77536741      55.26442492      10.63373435
S       72.24550355      56.04538902       7.87957435
S       72.24597815      52.27359986      10.80261085
S       70.47067812      53.48139393       7.70000000
S       70.63316702      55.11454075      11.19921210
S       68.85786698      56.32233481       8.09660125
S       67.32847773      53.33150977       8.26547775
S       68.85834158      52.55054566      11.01963775
Re      64.21378764      56.89463306       9.50396376
Re      63.84662810      51.96617919       9.39524834
Re      62.67234336      54.52399331       9.46368358
Re      65.38807237      54.33681894       9.43552852
S       67.25365271      55.39686370      10.63373435
S       65.72378885      56.17782780       7.87957435
S       65.72426345      52.40603865      10.80261085
S       63.94896342      53.61383272       7.70000000
S       64.11145231      55.24697954      11.19921210
S       62.33615228      56.45477360       8.09660125
S       60.80676303      53.46394855       8.26547775
S       62.33662689      52.68298444      11.01963775
Re      57.69207294      57.02707184       9.50396376
Re      57.32491340      52.09861797       9.39524834
Re      56.15062867      54.65643209       9.46368358
Re      58.86635768      54.46925772       9.43552852
S       60.73193801      55.52930248      10.63373435
S       59.20207416      56.31026659       7.87957435
S       59.20254876      52.53847743      10.80261085
S       57.42724872      53.74627150       7.70000000
S       57.58973762      55.37941831      11.19921210
S       55.81443758      56.58721239       8.09660125
S       54.28504834      53.59638733       8.26547775
S       55.81491219      52.81542323      11.01963775
Re      51.17035824      57.15951062       9.50396376
Re      50.80319871      52.23105676       9.39524834
Re      49.62891397      54.78887088       9.46368358
Re      52.34464298      54.60169650       9.43552852
S       54.21022331      55.66174126      10.63373435
S       52.68035945      56.44270537       7.87957435
S       52.68083406      52.67091622      10.80261085
S       50.90553403      53.87871028       7.70000000
S       51.06802292      55.51185711      11.19921210
S       49.29272289      56.71965117       8.09660125
S       47.76333364      53.72882611       8.26547775
S       49.29319750      52.94786201      11.01963775
Re      44.64864354      57.29194940       9.50396376
Re      44.28148400      52.36349555       9.39524834
Re      43.10719927      54.92130967       9.46368358
Re      45.82292828      54.73413528       9.43552852
S       47.68850861      55.79418005      10.63373435
S       46.15864476      56.57514415       7.87957435
S       46.15911936      52.80335500      10.80261085
S       44.38381932      54.01114906       7.70000000
S       44.54630822      55.64429589      11.19921210
S       42.77100819      56.85208995       8.09660125
S       41.24161894      53.86126491       8.26547775
S       42.77148280      53.08030080      11.01963775
Re      38.12692885      57.42438818       9.50396376
Re      37.75976931      52.49593433       9.39524834
Re      36.58548458      55.05374845       9.46368358
Re      39.30121359      54.86657407       9.43552852
S       41.16679392      55.92661883      10.63373435
S       39.63693006      56.70758293       7.87957435
S       39.63740467      52.93579378      10.80261085
S       37.86210463      54.14358784       7.70000000
S       38.02459353      55.77673467      11.19921210
S       36.24929349      56.98452873       8.09660125
S       34.71990424      53.99370368       8.26547775
S       36.24976809      53.21273958      11.01963775
Re      31.60521415      57.55682697       9.50396376
Re      31.23805461      52.62837311       9.39524834
Re      30.06376988      55.18618723       9.46368358
Re      32.77949889      54.99901285       9.43552852
S       34.64507922      56.05905762      10.63373435
S       33.11521536      56.84002171       7.87957435
S       33.11568996      53.06823257      10.80261085
S       31.34038993      54.27602663       7.70000000
S       31.50287883      55.90917345      11.19921210
S       29.72757880      57.11696752       8.09660125
S       28.19818954      54.12614247       8.26547775
S       29.72805340      53.34517836      11.01963775
Re     106.55362583      61.65910403       9.50396376
Re     106.18646629      56.73065016       9.39524834
Re     105.01218155      59.28846428       9.46368358
Re     107.72791056      59.10128991       9.43552852
S      109.59349090      60.16133467      10.63373435
S      108.06362703      60.94229877       7.87957435
S      108.06410164      57.17050962      10.80261085
S      106.28880161      58.37830369       7.70000000
S      106.45129050      60.01145050      11.19921210
S      104.67599047      61.21924457       8.09660125
S      103.14660122      58.22841952       8.26547775
S      104.67646507      57.44745542      11.01963775
Re     100.03191113      61.79154281       9.50396376
Re      99.66475158      56.86308895       9.39524834
Re      98.49046685      59.42090307       9.46368358
Re     101.20619586      59.23372869       9.43552852
S      103.07177619      60.29377345      10.63373435
S      101.54191235      61.07473756       7.87957435
S      101.54238694      57.30294840      10.80261085
S       99.76708691      58.51074247       7.70000000
S       99.92957580      60.14388929      11.19921210
S       98.15427577      61.35168336       8.09660125
S       96.62488652      58.36085830       8.26547775
S       98.15475038      57.57989420      11.01963775
Re      93.51019643      61.92398159       9.50396376
Re      93.14303690      56.99552773       9.39524834
Re      91.96875216      59.55334185       9.46368358
Re      94.68448117      59.36616747       9.43552852
S       96.55006150      60.42621223      10.63373435
S       95.02019764      61.20717634       7.87957435
S       95.02067225      57.43538719      10.80261085
S       93.24537222      58.64318125       7.70000000
S       93.40786111      60.27632808      11.19921210
S       91.63256108      61.48412213       8.09660125
S       90.10317183      58.49329708       8.26547775
S       91.63303568      57.71233299      11.01963775
Re      86.98848173      62.05642037       9.50396376
Re      86.62132219      57.12796652       9.39524834
Re      85.44703746      59.68578064       9.46368358
Re      88.16276647      59.49860625       9.43552852
S       90.02834680      60.55865102      10.63373435
S       88.49848294      61.33961513       7.87957435
S       88.49895755      57.56782597      10.80261085
S       86.72365751      58.77562003       7.70000000
S       86.88614641      60.40876686      11.19921210
S       85.11084638      61.61656092       8.09660125
S       83.58145713      58.62573588       8.26547775
S       85.11132099      57.84477177      11.01963775
Re      80.46676703      62.18885916       9.50396376
Re      80.09960750      57.26040530       9.39524834
Re      78.92532276      59.81821942       9.46368358
Re      81.64105176      59.63104504       9.43552852
S       83.50663210      60.69108980      10.63373435
S       81.97676825      61.47205390       7.87957435
S       81.97724286      57.70026475      10.80261085
S       80.20194281      58.90805882       7.70000000
S       80.36443172      60.54120564      11.19921210
S       78.58913167      61.74899970       8.09660125
S       77.05974243      58.75817466       8.26547775
S       78.58960628      57.97721055      11.01963775
Re      73.94505234      62.32129794       9.50396376
Re      73.57789280      57.39284408       9.39524834
Re      72.40360807      59.95065820       9.46368358
Re      75.11933708      59.76348382       9.43552852
S       76.98491741      60.82352859      10.63373435
S       75.45505355      61.60449269       7.87957435
S       75.45552815      57.83270353      10.80261085
S       73.68022812      59.04049760       7.70000000
S       73.84271702      60.67364442      11.19921210
S       72.06741698      61.88143848       8.09660125
S       70.53802773      58.89061344       8.26547775
S       72.06789158      58.10964933      11.01963775
Re      67.42333764      62.45373673       9.50396376
Re      67.05617810      57.52528286       9.39524834
Re      65.88189336      60.08309698       9.46368358
Re      68.59762237      59.89592261       9.43552852
S       70.46320271      60.95596737      10.63373435
S       68.93333885      61.73693147       7.87957435
S       68.93381345      57.96514232      10.80261085
S       67.15851342      59.17293639       7.70000000
S       67.32100231      60.80608320      11.19921210
S       65.54570228      62.01387727       8.09660125
S       64.01631303      59.02305222       8.26547775
S       65.54617689      58.24208811      11.01963775
Re      60.90162294      62.58617551       9.50396376
Re      60.53446340      57.65772164       9.39524834
Re      59.36017867      60.21553576       9.46368358
Re      62.07590768      60.02836139       9.43552852
S       63.94148801      61.08840615      10.63373435
S       62.41162416      61.86937026       7.87957435
S       62.41209876      58.09758110      10.80261085
S       60.63679872      59.30537517       7.70000000
S       60.79928762      60.93852198      11.19921210
S       59.02398758      62.14631606       8.09660125
S       57.49459834      59.15549100       8.26547775
S       59.02446219      58.37452690      11.01963775
Re      54.37990824      62.71861429       9.50396376
Re      54.01274871      57.79016043       9.39524834
Re      52.83846397      60.34797455       9.46368358
Re      55.55419298      60.16080017       9.43552852
S       57.41977331      61.22084493      10.63373435
S       55.88990945      62.00180904       7.87957435
S       55.89038406      58.23001989      10.80261085
S       54.11508403      59.43781395       7.70000000
S       54.27757292      61.07096078      11.19921210
S       52.50227289      62.27875483       8.09660125
S       50.97288364      59.28792978       8.26547775
S       52.50274750      58.50696568      11.01963775
Re      47.85819354      62.85105307       9.50396376
Re      47.49103400      57.92259922       9.39524834
Re      46.31674927      60.48041334       9.46368358
Re      49.03247828      60.29323895       9.43552852
S       50.89805861      61.35328372      10.63373435
S       49.36819476      62.13424782       7.87957435
S       49.36866936      58.36245867      10.80261085
S       47.59336932      59.57025273       7.70000000
S       47.75585822      61.20339956      11.19921210
S       45.98055819      62.41119362       8.09660125
S       44.45116894      59.42036858       8.26547775
S       45.98103280      58.63940447      11.01963775
Re      41.33647885      62.98349185       9.50396376
Re      40.96931931      58.05503800       9.39524834
Re      39.79503458      60.61285212       9.46368358
Re      42.51076359      60.42567774       9.43552852
S       44.37634392      61.48572250      10.63373435
S       42.84648006      62.26668660       7.87957435
S       42.84695467      58.49489745      10.80261085
S       41.07165463      59.70269151       7.70000000
S       41.23414353      61.33583834      11.19921210
S       39.45884349      62.54363240       8.09660125
S       37.92945424      59.55280735       8.26547775
S       39.45931809      58.77184325      11.01963775
Re      34.81476415      63.11593064       9.50396376
Re      34.44760461      58.18747678       9.39524834
Re      33.27331988      60.74529090       9.46368358
Re      35.98904889      60.55811652       9.43552852
S       37.85462922      61.61816129      10.63373435
S       36.32476536      62.39912538       7.87957435
S       36.32523996      58.62733623      10.80261085
S       34.54993993      59.83513030       7.70000000
S       34.71242883      61.46827712      11.19921210
S       32.93712880      62.67607119       8.09660125
S       31.40773954      59.68524614       8.26547775
S       32.93760340      58.90428203      11.01963775
Re     109.76317583      67.21820770       9.50396376
Re     109.39601629      62.28975383       9.39524834
Re     108.22173155      64.84756795       9.46368358
Re     110.93746056      64.66039358       9.43552852
S      112.80304090      65.72043834      10.63373435
S      111.27317703      66.50140244       7.87957435
S      111.27365164      62.72961329      10.80261085
S      109.49835161      63.93740736       7.70000000
S      109.66084050      65.57055417      11.19921210
S      107.88554047      66.77834824       8.09660125
S      106.35615122      63.78752319       8.26547775
S      107.88601507      63.00655909      11.01963775
Re     103.24146113      67.35064648       9.50396376
Re     102.87430158      62.42219262       9.39524834
Re     101.70001685      64.98000674       9.46368358
Re     104.41574586      64.79283236       9.43552852
S      106.28132619      65.85287712      10.63373435
S      104.75146235      66.63384123       7.87957435
S      104.75193694      62.86205207      10.80261085
S      102.97663691      64.06984614       7.70000000
S      103.13912580      65.70299296      11.19921210
S      101.36382577      66.91078703       8.09660125
S       99.83443652      63.91996197       8.26547775
S      101.36430038      63.13899787      11.01963775
Re      96.71974643      67.48308526       9.50396376
Re      96.35258690      62.55463140       9.39524834
Re      95.17830216      65.11244551       9.46368358
Re      97.89403117      64.92527114       9.43552852
S       99.75961150      65.98531590      10.63373435
S       98.22974764      66.76628001       7.87957435
S       98.23022225      62.99449086      10.80261085
S       96.45492222      64.20228492       7.70000000
S       96.61741111      65.83543174      11.19921210
S       94.84211108      67.04322580       8.09660125
S       93.31272183      64.05240075       8.26547775
S       94.84258568      63.27143666      11.01963775
Re      90.19803173      67.61552404       9.50396376
Re      89.83087219      62.68707019       9.39524834
Re      88.65658746      65.24488431       9.46368358
Re      91.37231647      65.05770992       9.43552852
S       93.23789680      66.11775468      10.63373435
S       91.70803294      66.89871879       7.87957435
S       91.70850755      63.12692964      10.80261085
S       89.93320751      64.33472370       7.70000000
S       90.09569641      65.96787053      11.19921210
S       88.32039638      67.17566459       8.09660125
S       86.79100713      64.18483954       8.26547775
S       88.32087099      63.40387543      11.01963775
Re      83.67631703      67.74796283       9.50396376
Re      83.30915750      62.81950897       9.39524834
Re      82.13487276      65.37732309       9.46368358
Re      84.85060176      65.19014871       9.43552852
S       86.71618210      66.25019347      10.63373435
S       85.18631825      67.03115757       7.87957435
S       85.18679286      63.25936842      10.80261085
S       83.41149281      64.46716248       7.70000000
S       83.57398172      66.10030931      11.19921210
S       81.79868167      67.30810337       8.09660125
S       80.26929243      64.31727833       8.26547775
S       81.79915628      63.53631422      11.01963775
Re      77.15460234      67.88040160       9.50396376
Re      76.78744280      62.95194775       9.39524834
Re      75.61315807      65.50976187       9.46368358
Re      78.32888708      65.32258749       9.43552852
S       80.19446741      66.38263226      10.63373435
S       78.66460355      67.16359636       7.87957435
S       78.66507815      63.39180720      10.80261085
S       76.88977812      64.59960127       7.70000000
S       77.05226702      66.23274809      11.19921210
S       75.27696698      67.44054215       8.09660125
S       73.74757773      64.44971711       8.26547775
S       75.27744158      63.66875300      11.01963775
Re      70.63288764      68.01284040       9.50396376
Re      70.26572810      63.08438653       9.39524834
Re      69.09144336      65.64220065       9.46368358
Re      71.80717237      65.45502628       9.43552852
S       73.67275271      66.51507104      10.63373435
S       72.14288885      67.29603514       7.87957435
S       72.14336345      63.52424599      10.80261085
S       70.36806342      64.73204006       7.70000000
S       70.53055231      66.36518687      11.19921210
S       68.75525228      67.57298094       8.09660125
S       67.22586303      64.58215589       8.26547775
S       68.75572689      63.80119178      11.01963775
Re      64.11117294      68.14527918       9.50396376
Re      63.74401340      63.21682531       9.39524834
Re      62.56972867      65.77463943       9.46368358
Re      65.28545768      65.58746506       9.43552852
S       67.15103801      66.64750982      10.63373435
S       65.62117416      67.42847393       7.87957435
S       65.62164876      63.65668477      10.80261085
S       63.84634872      64.86447884       7.70000000
S       64.00883762      66.49762565      11.19921210
S       62.23353758      67.70541973       8.09660125
S       60.70414834      64.71459467       8.26547775
S       62.23401219      63.93363057      11.01963775
Re      57.58945824      68.27771796       9.50396376
Re      57.22229871      63.34926410       9.39524834
Re      56.04801397      65.90707822       9.46368358
Re      58.76374298      65.71990384       9.43552852
S       60.62932331      66.77994860      10.63373435
S       59.09945945      67.56091271       7.87957435
S       59.09993406      63.78912356      10.80261085
S       57.32463403      64.99691762       7.70000000
S       57.48712292      66.63006445      11.19921210
S       55.71182289      67.83785850       8.09660125
S       54.18243364      64.84703345       8.26547775
S       55.71229750      64.06606935      11.01963775
Re      51.06774354      68.41015674       9.50396376
Re      50.70058400      63.48170289       9.39524834
Re      49.52629927      66.03951701       9.46368358
Re      52.24202828      65.85234262       9.43552852
S       54.10760861      66.91238738      10.63373435
S       52.57774476      67.69335149       7.87957435
S       52.57821936      63.92156234      10.80261085
S       50.80291932      65.12935640       7.70000000
S       50.96540822      66.76250323      11.19921210
S       49.19010819      67.97029729       8.09660125
S       47.66071894      64.97947224       8.26547775
S       49.19058280      64.19850813      11.01963775
Re      44.54602885      68.54259552       9.50396376
Re      44.17886931      63.61414167       9.39524834
Re      43.00458458      66.17195579       9.46368358
Re      45.72031359      65.98478141       9.43552852
S       47.58589392      67.04482617      10.63373435
S       46.05603006      67.82579027       7.87957435
S       46.05650467      64.05400112      10.80261085
S       44.28120463      65.26179518       7.70000000
S       44.44369353      66.89494201      11.19921210
S       42.66839349      68.10273607       8.09660125
S       41.13900424      65.11191102       8.26547775
S       42.66886809      64.33094692      11.01963775
Re      38.02431415      68.67503431       9.50396376
Re      37.65715461      63.74658045       9.39524834
Re      36.48286988      66.30439457       9.46368358
Re      39.19859889      66.11722019       9.43552852
S       41.06417922      67.17726496      10.63373435
S       39.53431536      67.95822905       7.87957435
S       39.53478996      64.18643990      10.80261085
S       37.75948993      65.39423397       7.70000000
S       37.92197883      67.02738079      11.19921210
S       36.14667880      68.23517486       8.09660125
S       34.61728954      65.24434981       8.26547775
S       36.14715340      64.46338570      11.01963775
