1200
Lattice="71.99412099999999 0.0 0.0 0.0 66.75511717554795 0.0 0.0 0.0 14.140637513519058" Properties=species:S:1:pos:R:3 pbc="T T T"
Te       3.74343900       4.23598691       5.00000000
Te       2.00000000       7.45938918       5.59847906
Mo       2.00000000       3.57747470       6.96918968
Mo       3.74343900       5.88191383       7.17143230
Te       3.74343900       2.00000000       8.54215845
Te       2.00000000       5.22340226       9.14063751
Te       3.74343900      10.60217891       5.00000000
Te       2.00000000      13.82558118       5.59847906
Mo       2.00000000       9.94366670       6.96918968
Mo       3.74343900      12.24810583       7.17143230
Te       3.74343900       8.36619200       8.54215845
Te       2.00000000      11.58959426       9.14063751
Te       3.74343900      16.96837091       5.00000000
Te       2.00000000      20.19177318       5.59847906
Mo       2.00000000      16.30985870       6.96918968
Mo       3.74343900      18.61429783       7.17143230
Te       3.74343900      14.73238400       8.54215845
Te       2.00000000      17.95578626       9.14063751
Te       3.74343900      23.33456291       5.00000000
Te       2.00000000      26.55796518       5.59847906
Mo       2.00000000      22.67605070       6.96918968
Mo       3.74343900      24.98048983       7.17143230
Te       3.74343900      21.09857600       8.54215845
Te       2.00000000      24.32197826       9.14063751
Te       3.74343900      29.70075491       5.00000000
Te       2.00000000      32.92415718       5.59847906
Mo       2.00000000      29.04224270       6.96918968
Mo       3.74343900      31.34668183       7.17143230
Te       3.74343900      27.46476800       8.54215845
Te       2.00000000      30.68817026       9.14063751
Te       3.74343900      36.06694691       5.00000000
Te       2.00000000      39.29034918       5.59847906
Mo       2.00000000      35.40843470       6.96918968
Mo       3.74343900      37.71287383       7.17143230
Te       3.74343900      33.83096000       8.54215845
Te       2.00000000      37.05436226       9.14063751
Te       3.74343900      42.43313891       5.00000000
Te       2.00000000      45.65654118       5.59847906
Mo       2.00000000      41.77462670       6.96918968
Mo       3.74343900      44.07906583       7.17143230
Te       3.74343900      40.19715200       8.54215845
Te       2.00000000      43.42055426       9.14063751
Te       3.74343900      48.79933091       5.00000000
Te       2.00000000      52.02273318       5.59847906
Mo       2.00000000      48.14081870       6.96918968
Mo       3.74343900      50.44525783       7.17143230
Te       3.74343900      46.56334400       8.54215845
Te       2.00000000      49.78674626       9.14063751
Te       3.74343900      55.16552291       5.00000000
Te       2.00000000      58.38892518       5.59847906
Mo       2.00000000      54.50701070       6.96918968
Mo       3.74343900      56.81144983       7.17143230
Te       3.74343900      52.92953600       8.54215845
Te       2.00000000      56.15293826       9.14063751
Te       3.74343900      61.53171491       5.00000000
Te       2.00000000      64.75511718       5.59847906
Mo       2.00000000      60.87320270       6.96918968
Mo       3.74343900      63.17764183       7.17143230
Te       3.74343900      59.29572800       8.54215845
Te       2.00000000      62.51913026       9.14063751
Te       7.23031700       4.23598691       5.00000000
Te       5.48687800       7.45938918       5.59847906
Mo       5.48687800       3.57747470       6.96918968
Mo       7.23031700       5.88191383       7.17143230
Te       7.23031700       2.00000000       8.54215845
Te       5.48687800       5.22340226       9.14063751
Te       7.23031700      10.60217891       5.00000000
Te       5.48687800      13.82558118       5.59847906
Mo       5.48687800       9.94366670       6.96918968
Mo       7.23031700      12.24810583       7.17143230
Te       7.23031700       8.36619200       8.54215845
Te       5.48687800      11.58959426       9.14063751
Te       7.23031700      16.96837091       5.00000000
Te       5.48687800      20.19177318       5.59847906
Mo       5.48687800      16.30985870       6.96918968
Mo       7.23031700      18.61429783       7.17143230
Te       7.23031700      14.73238400       8.54215845
Te       5.48687800      17.95578626       9.14063751
Te       7.23031700      23.33456291       5.00000000
Te       5.48687800      26.55796518       5.59847906
Mo       5.48687800      22.67605070       6.96918968
Mo       7.23031700      24.98048983       7.17143230
Te       7.23031700      21.09857600       8.54215845
Te       5.48687800      24.32197826       9.14063751
Te       7.23031700      29.70075491       5.00000000
Te       5.48687800      32.92415718       5.59847906
Mo       5.48687800      29.04224270       6.96918968
Mo       7.23031700      31.34668183       7.17143230
Te       7.23031700      27.46476800       8.54215845
Te       5.48687800      30.68817026       9.14063751
Te       7.23031700      36.06694691       5.00000000
Te       5.48687800      39.29034918       5.59847906
Mo       5.48687800      35.40843470       6.96918968
Mo       7.23031700      37.71287383       7.17143230
Te       7.23031700      33.83096000       8.54215845
Te       5.48687800      37.05436226       9.14063751
Te       7.23031700      42.43313891       5.00000000
Te       5.48687800      45.65654118       5.59847906
Mo       5.48687800      41.77462670       6.96918968
Mo       7.23031700      44.07906583       7.17143230
Te       7.23031700      40.19715200       8.54215845
Te       5.48687800      43.42055426       9.14063751
Te       7.23031700      48.79933091       5.00000000
Te       5.48687800      52.02273318       5.59847906
Mo       5.48687800      48.14081870       6.96918968
Mo       7.23031700      50.44525783       7.17143230
Te       7.23031700      46.56334400       8.54215845
Te       5.48687800      49.78674626       9.14063751
Te       7.23031700      55.16552291       5.00000000
Te       5.48687800      58.38892518       5.59847906
Mo       5.48687800      54.50701070       6.96918968
Mo       7.23031700      56.81144983       7.17143230
Te       7.23031700      52.92953600       8.54215845
Te       5.48687800      56.15293826       9.14063751
Te       7.23031700      61.53171491       5.00000000
Te       5.48687800      64.75511718       5.59847906
Mo       5.48687800      60.87320270       6.96918968
Mo       7.23031700      63.17764183       7.17143230
Te       7.23031700      59.29572800       8.54215845
Te       5.48687800      62.51913026       9.14063751
Te      10.71719500       4.23598691       5.00000000
Te       8.97375600       7.45938918       5.59847906
Mo       8.97375600       3.57747470       6.96918968
Mo      10.71719500       5.88191383       7.17143230
Te      10.71719500       2.00000000       8.54215845
Te       8.97375600       5.22340226       9.14063751
Te      10.71719500      10.60217891       5.00000000
Te       8.97375600      13.82558118       5.59847906
Mo       8.97375600       9.94366670       6.96918968
Mo      10.71719500      12.24810583       7.17143230
Te      10.71719500       8.36619200       8.54215845
Te       8.97375600      11.58959426       9.14063751
Te      10.71719500      16.96837091       5.00000000
Te       8.97375600      20.19177318       5.59847906
Mo       8.97375600      16.30985870       6.96918968
Mo      10.71719500      18.61429783       7.17143230
Te      10.71719500      14.73238400       8.54215845
Te       8.97375600      17.95578626       9.14063751
Te      10.71719500      23.33456291       5.00000000
Te       8.97375600      26.55796518       5.59847906
Mo       8.97375600      22.67605070       6.96918968
Mo      10.71719500      24.98048983       7.17143230
Te      10.71719500      21.09857600       8.54215845
Te       8.97375600      24.32197826       9.14063751
Te      10.71719500      29.70075491       5.00000000
Te       8.97375600      32.92415718       5.59847906
Mo       8.97375600      29.04224270       6.96918968
Mo      10.71719500      31.34668183       7.17143230
Te      10.71719500      27.46476800       8.54215845
Te       8.97375600      30.68817026       9.14063751
Te      10.71719500      36.06694691       5.00000000
Te       8.97375600      39.29034918       5.59847906
Mo       8.97375600      35.40843470       6.96918968
Mo      10.71719500      37.71287383       7.17143230
Te      10.71719500      33.83096000       8.54215845
Te       8.97375600      37.05436226       9.14063751
Te      10.71719500      42.43313891       5.00000000
Te       8.97375600      45.65654118       5.59847906
Mo       8.97375600      41.77462670       6.96918968
Mo      10.71719500      44.07906583       7.17143230
Te      10.71719500      40.19715200       8.54215845
Te       8.97375600      43.42055426       9.14063751
Te      10.71719500      48.79933091       5.00000000
Te       8.97375600      52.02273318       5.59847906
Mo       8.97375600      48.14081870       6.96918968
Mo      10.71719500      50.44525783       7.17143230
Te      10.71719500      46.56334400       8.54215845
Te       8.97375600      49.78674626       9.14063751
Te      10.71719500      55.16552291       5.00000000
Te       8.97375600      58.38892518       5.59847906
Mo       8.97375600      54.50701070       6.96918968
Mo      10.71719500      56.81144983       7.17143230
Te      10.71719500      52.92953600       8.54215845
Te       8.97375600      56.15293826       9.14063751
Te      10.71719500      61.53171491       5.00000000
Te       8.97375600      64.75511718       5.59847906
Mo       8.97375600      60.87320270       6.96918968
Mo      10.71719500      63.17764183       7.17143230
Te      10.71719500      59.29572800       8.54215845
Te       8.97375600      62.51913026       9.14063751
Te      14.20407300       4.23598691       5.00000000
Te      12.46063400       7.45938918       5.59847906
Mo      12.46063400       3.57747470       6.96918968
Mo      14.20407300       5.88191383       7.17143230
Te      14.20407300       2.00000000       8.54215845
Te      12.46063400       5.22340226       9.14063751
Te      14.20407300      10.60217891       5.00000000
Te      12.46063400      13.82558118       5.59847906
Mo      12.46063400       9.94366670       6.96918968
Mo      14.20407300      12.24810583       7.17143230
Te      14.20407300       8.36619200       8.54215845
Te      12.46063400      11.58959426       9.14063751
Te      14.20407300      16.96837091       5.00000000
Te      12.46063400      20.19177318       5.59847906
Mo      12.46063400      16.30985870       6.96918968
Mo      14.20407300      18.61429783       7.17143230
Te      14.20407300      14.73238400       8.54215845
Te      12.46063400      17.95578626       9.14063751
Te      14.20407300      23.33456291       5.00000000
Te      12.46063400      26.55796518       5.59847906
Mo      12.46063400      22.67605070       6.96918968
Mo      14.20407300      24.98048983       7.17143230
Te      14.20407300      21.09857600       8.54215845
Te      12.46063400      24.32197826       9.14063751
Te      14.20407300      29.70075491       5.00000000
Te      12.46063400      32.92415718       5.59847906
Mo      12.46063400      29.04224270       6.96918968
Mo      14.20407300      31.34668183       7.17143230
Te      14.20407300      27.46476800       8.54215845
Te      12.46063400      30.68817026       9.14063751
Te      14.20407300      36.06694691       5.00000000
Te      12.46063400      39.29034918       5.59847906
Mo      12.46063400      35.40843470       6.96918968
Mo      14.20407300      37.71287383       7.17143230
Te      14.20407300      33.83096000       8.54215845
Te      12.46063400      37.05436226       9.14063751
Te      14.20407300      42.43313891       5.00000000
Te      12.46063400      45.65654118       5.59847906
Mo      12.46063400      41.77462670       6.96918968
Mo      14.20407300      44.07906583       7.17143230
Te      14.20407300      40.19715200       8.54215845
Te      12.46063400      43.42055426       9.14063751
Te      14.20407300      48.79933091       5.00000000
Te      12.46063400      52.02273318       5.59847906
Mo      12.46063400      48.14081870       6.96918968
Mo      14.20407300      50.44525783       7.17143230
Te      14.20407300      46.56334400       8.54215845
Te      12.46063400      49.78674626       9.14063751
Te      14.20407300      55.16552291       5.00000000
Te      12.46063400      58.38892518       5.59847906
Mo      12.46063400      54.50701070       6.96918968
Mo      14.20407300      56.81144983       7.17143230
Te      14.20407300      52.92953600       8.54215845
Te      12.46063400      56.15293826       9.14063751
Te      14.20407300      61.53171491       5.00000000
Te      12.46063400      64.75511718       5.59847906
Mo      12.46063400      60.87320270       6.96918968
Mo      14.20407300      63.17764183       7.17143230
Te      14.20407300      59.29572800       8.54215845
Te      12.46063400      62.51913026       9.14063751
Te      17.69095100       4.23598691       5.00000000
Te      15.94751200       7.45938918       5.59847906
Mo      15.94751200       3.57747470       6.96918968
Mo      17.69095100       5.88191383       7.17143230
Te      17.69095100       2.00000000       8.54215845
Te      15.94751200       5.22340226       9.14063751
Te      17.69095100      10.60217891       5.00000000
Te      15.94751200      13.82558118       5.59847906
Mo      15.94751200       9.94366670       6.96918968
Mo      17.69095100      12.24810583       7.17143230
Te      17.69095100       8.36619200       8.54215845
Te      15.94751200      11.58959426       9.14063751
Te      17.69095100      16.96837091       5.00000000
Te      15.94751200      20.19177318       5.59847906
Mo      15.94751200      16.30985870       6.96918968
Mo      17.69095100      18.61429783       7.17143230
Te      17.69095100      14.73238400       8.54215845
Te      15.94751200      17.95578626       9.14063751
Te      17.69095100      23.33456291       5.00000000
Te      15.94751200      26.55796518       5.59847906
Mo      15.94751200      22.67605070       6.96918968
Mo      17.69095100      24.98048983       7.17143230
Te      17.69095100      21.09857600       8.54215845
Te      15.94751200      24.32197826       9.14063751
Te      17.69095100      29.70075491       5.00000000
Te      15.94751200      32.92415718       5.59847906
Mo      15.94751200      29.04224270       6.96918968
Mo      17.69095100      31.34668183       7.17143230
Te      17.69095100      27.46476800       8.54215845
Te      15.94751200      30.68817026       9.14063751
Te      17.69095100      36.06694691       5.00000000
Te      15.94751200      39.29034918       5.59847906
Mo      15.94751200      35.40843470       6.96918968
Mo      17.69095100      37.71287383       7.17143230
Te      17.69095100      33.83096000       8.54215845
Te      15.94751200      37.05436226       9.14063751
Te      17.69095100      42.43313891       5.00000000
Te      15.94751200      45.65654118       5.59847906
Mo      15.94751200      41.77462670       6.96918968
Mo      17.69095100      44.07906583       7.17143230
Te      17.69095100      40.19715200       8.54215845
Te      15.94751200      43.42055426       9.14063751
Te      17.69095100      48.79933091       5.00000000
Te      15.94751200      52.02273318       5.59847906
Mo      15.94751200      48.14081870       6.96918968
Mo      17.69095100      50.44525783       7.17143230
Te      17.69095100      46.56334400       8.54215845
Te      15.94751200      49.78674626       9.14063751
Te      17.69095100      55.16552291       5.00000000
Te      15.94751200      58.38892518       5.59847906
Mo      15.94751200      54.50701070       6.96918968
Mo      17.69095100      56.81144983       7.17143230
Te      17.69095100      52.92953600       8.54215845
Te      15.94751200      56.15293826       9.14063751
Te      17.69095100      61.53171491       5.00000000
Te      15.94751200      64.75511718       5.59847906
Mo      15.94751200      60.87320270       6.96918968
Mo      17.69095100      63.17764183       7.17143230
Te      17.69095100      59.29572800       8.54215845
Te      15.94751200      62.51913026       9.14063751
Te      21.17782900       4.23598691       5.00000000
Te      19.43439000       7.45938918       5.59847906
Mo      19.43439000       3.57747470       6.96918968
Mo      21.17782900       5.88191383       7.17143230
Te      21.17782900       2.00000000       8.54215845
Te      19.43439000       5.22340226       9.14063751
Te      21.17782900      10.60217891       5.00000000
Te      19.43439000      13.82558118       5.59847906
Mo      19.43439000       9.94366670       6.96918968
Mo      21.17782900      12.24810583       7.17143230
Te      21.17782900       8.36619200       8.54215845
Te      19.43439000      11.58959426       9.14063751
Te      21.17782900      16.96837091       5.00000000
Te      19.43439000      20.19177318       5.59847906
Mo      19.43439000      16.30985870       6.96918968
Mo      21.17782900      18.61429783       7.17143230
Te      21.17782900      14.73238400       8.54215845
Te      19.43439000      17.95578626       9.14063751
Te      21.17782900      23.33456291       5.00000000
Te      19.43439000      26.55796518       5.59847906
Mo      19.43439000      22.67605070       6.96918968
Mo      21.17782900      24.98048983       7.17143230
Te      21.17782900      21.09857600       8.54215845
Te      19.43439000      24.32197826       9.14063751
Te      21.17782900      29.70075491       5.00000000
Te      19.43439000      32.92415718       5.59847906
Mo      19.43439000      29.04224270       6.96918968
Mo      21.17782900      31.34668183       7.17143230
Te      21.17782900      27.46476800       8.54215845
Te      19.43439000      30.68817026       9.14063751
Te      21.17782900      36.06694691       5.00000000
Te      19.43439000      39.29034918       5.59847906
Mo      19.43439000      35.40843470       6.96918968
Mo      21.17782900      37.71287383       7.17143230
Te      21.17782900      33.83096000       8.54215845
Te      19.43439000      37.05436226       9.14063751
Te      21.17782900      42.43313891       5.00000000
Te      19.43439000      45.65654118       5.59847906
Mo      19.43439000      41.77462670       6.96918968
Mo      21.17782900      44.07906583       7.17143230
Te      21.17782900      40.19715200       8.54215845
Te      19.43439000      43.42055426       9.14063751
Te      21.17782900      48.79933091       5.00000000
Te      19.43439000      52.02273318       5.59847906
Mo      19.43439000      48.14081870       6.96918968
Mo      21.17782900      50.44525783       7.17143230
Te      21.17782900      46.56334400       8.54215845
Te      19.43439000      49.78674626       9.14063751
Te      21.17782900      55.16552291       5.00000000
Te      19.43439000      58.38892518       5.59847906
Mo      19.43439000      54.50701070       6.96918968
Mo      21.17782900      56.81144983       7.17143230
Te      21.17782900      52.92953600       8.54215845
Te      19.43439000      56.15293826       9.14063751
Te      21.17782900      61.53171491       5.00000000
Te      19.43439000      64.75511718       5.59847906
Mo      19.43439000      60.87320270       6.96918968
Mo      21.17782900      63.17764183       7.17143230
Te      21.17782900      59.29572800       8.54215845
Te      19.43439000      62.51913026       9.14063751
Te      24.66470700       4.23598691       5.00000000
Te      22.92126800       7.45938918       5.59847906
Mo      22.92126800       3.57747470       6.96918968
Mo      24.66470700       5.88191383       7.17143230
Te      24.66470700       2.00000000       8.54215845
Te      22.92126800       5.22340226       9.14063751
Te      24.66470700      10.60217891       5.00000000
Te      22.92126800      13.82558118       5.59847906
Mo      22.92126800       9.94366670       6.96918968
Mo      24.66470700      12.24810583       7.17143230
Te      24.66470700       8.36619200       8.54215845
Te      22.92126800      11.58959426       9.14063751
Te      24.66470700      16.96837091       5.00000000
Te      22.92126800      20.19177318       5.59847906
Mo      22.92126800      16.30985870       6.96918968
Mo      24.66470700      18.61429783       7.17143230
Te      24.66470700      14.73238400       8.54215845
Te      22.92126800      17.95578626       9.14063751
Te      24.66470700      23.33456291       5.00000000
Te      22.92126800      26.55796518       5.59847906
Mo      22.92126800      22.67605070       6.96918968
Mo      24.66470700      24.98048983       7.17143230
Te      24.66470700      21.09857600       8.54215845
Te      22.92126800      24.32197826       9.14063751
Te      24.66470700      29.70075491       5.00000000
Te      22.92126800      32.92415718       5.59847906
Mo      22.92126800      29.04224270       6.96918968
Mo      24.66470700      31.34668183       7.17143230
Te      24.66470700      27.46476800       8.54215845
Te      22.92126800      30.68817026       9.14063751
Te      24.66470700      36.06694691       5.00000000
Te      22.92126800      39.29034918       5.59847906
Mo      22.92126800      35.40843470       6.96918968
Mo      24.66470700      37.71287383       7.17143230
Te      24.66470700      33.83096000       8.54215845
Te      22.92126800      37.05436226       9.14063751
Te      24.66470700      42.43313891       5.00000000
Te      22.92126800      45.65654118       5.59847906
Mo      22.92126800      41.77462670       6.96918968
Mo      24.66470700      44.07906583       7.17143230
Te      24.66470700      40.19715200       8.54215845
Te      22.92126800      43.42055426       9.14063751
Te      24.66470700      48.79933091       5.00000000
Te      22.92126800      52.02273318       5.59847906
Mo      22.92126800      48.14081870       6.96918968
Mo      24.66470700      50.44525783       7.17143230
Te      24.66470700      46.56334400       8.54215845
Te      22.92126800      49.78674626       9.14063751
Te      24.66470700      55.16552291       5.00000000
Te      22.92126800      58.38892518       5.59847906
Mo      22.92126800      54.50701070       6.96918968
Mo      24.66470700      56.81144983       7.17143230
Te      24.66470700      52.92953600       8.54215845
Te      22.92126800      56.15293826       9.14063751
Te      24.66470700      61.53171491       5.00000000
Te      22.92126800      64.75511718       5.59847906
Mo      22.92126800      60.87320270       6.96918968
Mo      24.66470700      63.17764183       7.17143230
Te      24.66470700      59.29572800       8.54215845
Te      22.92126800      62.51913026       9.14063751
Te      28.15158500       4.23598691       5.00000000
Te      26.40814600       7.45938918       5.59847906
Mo      26.40814600       3.57747470       6.96918968
Mo      28.15158500       5.88191383       7.17143230
Te      28.15158500       2.00000000       8.54215845
Te      26.40814600       5.22340226       9.14063751
Te      28.15158500      10.60217891       5.00000000
Te      26.40814600      13.82558118       5.59847906
Mo      26.40814600       9.94366670       6.96918968
Mo      28.15158500      12.24810583       7.17143230
Te      28.15158500       8.36619200       8.54215845
Te      26.40814600      11.58959426       9.14063751
Te      28.15158500      16.96837091       5.00000000
Te      26.40814600      20.19177318       5.59847906
Mo      26.40814600      16.30985870       6.96918968
Mo      28.15158500      18.61429783       7.17143230
Te      28.15158500      14.73238400       8.54215845
Te      26.40814600      17.95578626       9.14063751
Te      28.15158500      23.33456291       5.00000000
Te      26.40814600      26.55796518       5.59847906
Mo      26.40814600      22.67605070       6.96918968
Mo      28.15158500      24.98048983       7.17143230
Te      28.15158500      21.09857600       8.54215845
Te      26.40814600      24.32197826       9.14063751
Te      28.15158500      29.70075491       5.00000000
Te      26.40814600      32.92415718       5.59847906
Mo      26.40814600      29.04224270       6.96918968
Mo      28.15158500      31.34668183       7.17143230
Te      28.15158500      27.46476800       8.54215845
Te      26.40814600      30.68817026       9.14063751
Te      28.15158500      36.06694691       5.00000000
Te      26.40814600      39.29034918       5.59847906
Mo      26.40814600      35.40843470       6.96918968
Mo      28.15158500      37.71287383       7.17143230
Te      28.15158500      33.83096000       8.54215845
Te      26.40814600      37.05436226       9.14063751
Te      28.15158500      42.43313891       5.00000000
Te      26.40814600      45.65654118       5.59847906
Mo      26.40814600      41.77462670       6.96918968
Mo      28.15158500      44.07906583       7.17143230
Te      28.15158500      40.19715200       8.54215845
Te      26.40814600      43.42055426       9.14063751
Te      28.15158500      48.79933091       5.00000000
Te      26.40814600      52.02273318       5.59847906
Mo      26.40814600      48.14081870       6.96918968
Mo      28.15158500      50.44525783       7.17143230
Te      28.15158500      46.56334400       8.54215845
Te      26.40814600      49.78674626       9.14063751
Te      28.15158500      55.16552291       5.00000000
Te      26.40814600      58.38892518       5.59847906
Mo      26.40814600      54.50701070       6.96918968
Mo      28.15158500      56.81144983       7.17143230
Te      28.15158500      52.92953600       8.54215845
Te      26.40814600      56.15293826       9.14063751
Te      28.15158500      61.53171491       5.00000000
Te      26.40814600      64.75511718       5.59847906
Mo      26.40814600      60.87320270       6.96918968
Mo      28.15158500      63.17764183       7.17143230
Te      28.15158500      59.29572800       8.54215845
Te      26.40814600      62.51913026       9.14063751
Te      31.63846300       4.23598691       5.00000000
Te      29.89502400       7.45938918       5.59847906
Mo      29.89502400       3.57747470       6.96918968
Mo      31.63846300       5.88191383       7.17143230
Te      31.63846300       2.00000000       8.54215845
Te      29.89502400       5.22340226       9.14063751
Te      31.63846300      10.60217891       5.00000000
Te      29.89502400      13.82558118       5.59847906
Mo      29.89502400       9.94366670       6.96918968
Mo      31.63846300      12.24810583       7.17143230
Te      31.63846300       8.36619200       8.54215845
Te      29.89502400      11.58959426       9.14063751
Te      31.63846300      16.96837091       5.00000000
Te      29.89502400      20.19177318       5.59847906
Mo      29.89502400      16.30985870       6.96918968
Mo      31.63846300      18.61429783       7.17143230
Te      31.63846300      14.73238400       8.54215845
Te      29.89502400      17.95578626       9.14063751
Te      31.63846300      23.33456291       5.00000000
Te      29.89502400      26.55796518       5.59847906
Mo      29.89502400      22.67605070       6.96918968
Mo      31.63846300      24.98048983       7.17143230
Te      31.63846300      21.09857600       8.54215845
Te      29.89502400      24.32197826       9.14063751
Te      31.63846300      29.70075491       5.00000000
Te      29.89502400      32.92415718       5.59847906
Mo      29.89502400      29.04224270       6.96918968
Mo      31.63846300      31.34668183       7.17143230
Te      31.63846300      27.46476800       8.54215845
Te      29.89502400      30.68817026       9.14063751
Te      31.63846300      36.06694691       5.00000000
Te      29.89502400      39.29034918       5.59847906
Mo      29.89502400      35.40843470       6.96918968
Mo      31.63846300      37.71287383       7.17143230
Te      31.63846300      33.83096000       8.54215845
Te      29.89502400      37.05436226       9.14063751
Te      31.63846300      42.43313891       5.00000000
Te      29.89502400      45.65654118       5.59847906
Mo      29.89502400      41.77462670       6.96918968
Mo      31.63846300      44.07906583       7.17143230
Te      31.63846300      40.19715200       8.54215845
Te      29.89502400      43.42055426       9.14063751
Te      31.63846300      48.79933091       5.00000000
Te      29.89502400      52.02273318       5.59847906
Mo      29.89502400      48.14081870       6.96918968
Mo      31.63846300      50.44525783       7.17143230
Te      31.63846300      46.56334400       8.54215845
Te      29.89502400      49.78674626       9.14063751
Te      31.63846300      55.16552291       5.00000000
Te      29.89502400      58.38892518       5.59847906
Mo      29.89502400      54.50701070       6.96918968
Mo      31.63846300      56.81144983       7.17143230
Te      31.63846300      52.92953600       8.54215845
Te      29.89502400      56.15293826       9.14063751
Te      31.63846300      61.53171491       5.00000000
Te      29.89502400      64.75511718       5.59847906
Mo      29.89502400      60.87320270       6.96918968
Mo      31.63846300      63.17764183       7.17143230
Te      31.63846300      59.29572800       8.54215845
Te      29.89502400      62.51913026       9.14063751
Te      35.12534100       4.23598691       5.00000000
Te      33.38190200       7.45938918       5.59847906
Mo      33.38190200       3.57747470       6.96918968
Mo      35.12534100       5.88191383       7.17143230
Te      35.12534100       2.00000000       8.54215845
Te      33.38190200       5.22340226       9.14063751
Te      35.12534100      10.60217891       5.00000000
Te      33.38190200      13.82558118       5.59847906
Mo      33.38190200       9.94366670       6.96918968
Mo      35.12534100      12.24810583       7.17143230
Te      35.12534100       8.36619200       8.54215845
Te      33.38190200      11.58959426       9.14063751
Te      35.12534100      16.96837091       5.00000000
Te      33.38190200      20.19177318       5.59847906
Mo      33.38190200      16.30985870       6.96918968
Mo      35.12534100      18.61429783       7.17143230
Te      35.12534100      14.73238400       8.54215845
Te      33.38190200      17.95578626       9.14063751
Te      35.12534100      23.33456291       5.00000000
Te      33.38190200      26.55796518       5.59847906
Mo      33.38190200      22.67605070       6.96918968
Mo      35.12534100      24.98048983       7.17143230
Te      35.12534100      21.09857600       8.54215845
Te      33.38190200      24.32197826       9.14063751
Te      35.12534100      29.70075491       5.00000000
Te      33.38190200      32.92415718       5.59847906
Mo      33.38190200      29.04224270       6.96918968
Mo      35.12534100      31.34668183       7.17143230
Te      35.12534100      27.46476800       8.54215845
Te      33.38190200      30.68817026       9.14063751
Te      35.12534100      36.06694691       5.00000000
Te      33.38190200      39.29034918       5.59847906
Mo      33.38190200      35.40843470       6.96918968
Mo      35.12534100      37.71287383       7.17143230
Te      35.12534100      33.83096000       8.54215845
Te      33.38190200      37.05436226       9.14063751
Te      35.12534100      42.43313891       5.00000000
Te      33.38190200      45.65654118       5.59847906
Mo      33.38190200      41.77462670       6.96918968
Mo      35.12534100      44.07906583       7.17143230
Te      35.12534100      40.19715200       8.54215845
Te      33.38190200      43.42055426       9.14063751
Te      35.12534100      48.79933091       5.00000000
Te      33.38190200      52.02273318       5.59847906
Mo      33.38190200      48.14081870       6.96918968
Mo      35.12534100      50.44525783       7.17143230
Te      35.12534100      46.56334400       8.54215845
Te      33.38190200      49.78674626       9.14063751
Te      35.12534100      55.16552291       5.00000000
Te      33.38190200      58.38892518       5.59847906
Mo      33.38190200      54.50701070       6.96918968
Mo      35.12534100      56.81144983       7.17143230
Te      35.12534100      52.92953600       8.54215845
Te      33.38190200      56.15293826       9.14063751
Te      35.12534100      61.53171491       5.00000000
Te      33.38190200      64.75511718       5.59847906
Mo      33.38190200      60.87320270       6.96918968
Mo      35.12534100      63.17764183       7.17143230
Te      35.12534100      59.29572800       8.54215845
Te      33.38190200      62.51913026       9.14063751
Te      38.61221900       4.23598691       5.00000000
Te      36.86878000       7.45938918       5.59847906
Mo      36.86878000       3.57747470       6.96918968
Mo      38.61221900       5.88191383       7.17143230
Te      38.61221900       2.00000000       8.54215845
Te      36.86878000       5.22340226       9.14063751
Te      38.61221900      10.60217891       5.00000000
Te      36.86878000      13.82558118       5.59847906
Mo      36.86878000       9.94366670       6.96918968
Mo      38.61221900      12.24810583       7.17143230
Te      38.61221900       8.36619200       8.54215845
Te      36.86878000      11.58959426       9.14063751
Te      38.61221900      16.96837091       5.00000000
Te      36.86878000      20.19177318       5.59847906
Mo      36.86878000      16.30985870       6.96918968
Mo      38.61221900      18.61429783       7.17143230
Te      38.61221900      14.73238400       8.54215845
Te      36.86878000      17.95578626       9.14063751
Te      38.61221900      23.33456291       5.00000000
Te      36.86878000      26.55796518       5.59847906
Mo      36.86878000      22.67605070       6.96918968
Mo      38.61221900      24.98048983       7.17143230
Te      38.61221900      21.09857600       8.54215845
Te      36.86878000      24.32197826       9.14063751
Te      38.61221900      29.70075491       5.00000000
Te      36.86878000      32.92415718       5.59847906
Mo      36.86878000      29.04224270       6.96918968
Mo      38.61221900      31.34668183       7.17143230
Te      38.61221900      27.46476800       8.54215845
Te      36.86878000      30.68817026       9.14063751
Te      38.61221900      36.06694691       5.00000000
Te      36.86878000      39.29034918       5.59847906
Mo      36.86878000      35.40843470       6.96918968
Mo      38.61221900      37.71287383       7.17143230
Te      38.61221900      33.83096000       8.54215845
Te      36.86878000      37.05436226       9.14063751
Te      38.61221900      42.43313891       5.00000000
Te      36.86878000      45.65654118       5.59847906
Mo      36.86878000      41.77462670       6.96918968
Mo      38.61221900      44.07906583       7.17143230
Te      38.61221900      40.19715200       8.54215845
Te      36.86878000      43.42055426       9.14063751
Te      38.61221900      48.79933091       5.00000000
Te      36.86878000      52.02273318       5.59847906
Mo      36.86878000      48.14081870       6.96918968
Mo      38.61221900      50.44525783       7.17143230
Te      38.61221900      46.56334400       8.54215845
Te      36.86878000      49.78674626       9.14063751
Te      38.61221900      55.16552291       5.00000000
Te      36.86878000      58.38892518       5.59847906
Mo      36.86878000      54.50701070       6.96918968
Mo      38.61221900      56.81144983       7.17143230
Te      38.61221900      52.92953600       8.54215845
Te      36.86878000      56.15293826       9.14063751
Te      38.61221900      61.53171491       5.00000000
Te      36.86878000      64.75511718       5.59847906
Mo      36.86878000      60.87320270       6.96918968
Mo      38.61221900      63.17764183       7.17143230
Te      38.61221900      59.29572800       8.54215845
Te      36.86878000      62.51913026       9.14063751
Te      42.09909700       4.23598691       5.00000000
Te      40.35565800       7.45938918       5.59847906
Mo      40.35565800       3.57747470       6.96918968
Mo      42.09909700       5.88191383       7.17143230
Te      42.09909700       2.00000000       8.54215845
Te      40.35565800       5.22340226       9.14063751
Te      42.09909700      10.60217891       5.00000000
Te      40.35565800      13.82558118       5.59847906
Mo      40.35565800       9.94366670       6.96918968
Mo      42.09909700      12.24810583       7.17143230
Te      42.09909700       8.36619200       8.54215845
Te      40.35565800      11.58959426       9.14063751
Te      42.09909700      16.96837091       5.00000000
Te      40.35565800      20.19177318       5.59847906
Mo      40.35565800      16.30985870       6.96918968
Mo      42.09909700      18.61429783       7.17143230
Te      42.09909700      14.73238400       8.54215845
Te      40.35565800      17.95578626       9.14063751
Te      42.09909700      23.33456291       5.00000000
Te      40.35565800      26.55796518       5.59847906
Mo      40.35565800      22.67605070       6.96918968
Mo      42.09909700      24.98048983       7.17143230
Te      42.09909700      21.09857600       8.54215845
Te      40.35565800      24.32197826       9.14063751
Te      42.09909700      29.70075491       5.00000000
Te      40.35565800      32.92415718       5.59847906
Mo      40.35565800      29.04224270       6.96918968
Mo      42.09909700      31.34668183       7.17143230
Te      42.09909700      27.46476800       8.54215845
Te      40.35565800      30.68817026       9.14063751
Te      42.09909700      36.06694691       5.00000000
Te      40.35565800      39.29034918       5.59847906
Mo      40.35565800      35.40843470       6.96918968
Mo      42.09909700      37.71287383       7.17143230
Te      42.09909700      33.83096000       8.54215845
Te      40.35565800      37.05436226       9.14063751
Te      42.09909700      42.43313891       5.00000000
Te      40.35565800      45.65654118       5.59847906
Mo      40.35565800      41.77462670       6.96918968
Mo      42.09909700      44.07906583       7.17143230
Te      42.09909700      40.19715200       8.54215845
Te      40.35565800      43.42055426       9.14063751
Te      42.09909700      48.79933091       5.00000000
Te      40.35565800      52.02273318       5.59847906
Mo      40.35565800      48.14081870       6.96918968
Mo      42.09909700      50.44525783       7.17143230
Te      42.09909700      46.56334400       8.54215845
Te      40.35565800      49.78674626       9.14063751
Te      42.09909700      55.16552291       5.00000000
Te      40.35565800      58.38892518       5.59847906
Mo      40.35565800      54.50701070       6.96918968
Mo      42.09909700      56.81144983       7.17143230
Te      42.09909700      52.92953600       8.54215845
Te      40.35565800      56.15293826       9.14063751
Te      42.09909700      61.53171491       5.00000000
Te      40.35565800      64.75511718       5.59847906
Mo      40.35565800      60.87320270       6.96918968
Mo      42.09909700      63.17764183       7.17143230
Te      42.09909700      59.29572800       8.54215845
Te      40.35565800      62.51913026       9.14063751
Te      45.58597500       4.23598691       5.00000000
Te      43.84253600       7.45938918       5.59847906
Mo      43.84253600       3.57747470       6.96918968
Mo      45.58597500       5.88191383       7.17143230
Te      45.58597500       2.00000000       8.54215845
Te      43.84253600       5.22340226       9.14063751
Te      45.58597500      10.60217891       5.00000000
Te      43.84253600      13.82558118       5.59847906
Mo      43.84253600       9.94366670       6.96918968
Mo      45.58597500      12.24810583       7.17143230
Te      45.58597500       8.36619200       8.54215845
Te      43.84253600      11.58959426       9.14063751
Te      45.58597500      16.96837091       5.00000000
Te      43.84253600      20.19177318       5.59847906
Mo      43.84253600      16.30985870       6.96918968
Mo      45.58597500      18.61429783       7.17143230
Te      45.58597500      14.73238400       8.54215845
Te      43.84253600      17.95578626       9.14063751
Te      45.58597500      23.33456291       5.00000000
Te      43.84253600      26.55796518       5.59847906
Mo      43.84253600      22.67605070       6.96918968
Mo      45.58597500      24.98048983       7.17143230
Te      45.58597500      21.09857600       8.54215845
Te      43.84253600      24.32197826       9.14063751
Te      45.58597500      29.70075491       5.00000000
Te      43.84253600      32.92415718       5.59847906
Mo      43.84253600      29.04224270       6.96918968
Mo      45.58597500      31.34668183       7.17143230
Te      45.58597500      27.46476800       8.54215845
Te      43.84253600      30.68817026       9.14063751
Te      45.58597500      36.06694691       5.00000000
Te      43.84253600      39.29034918       5.59847906
Mo      43.84253600      35.40843470       6.96918968
Mo      45.58597500      37.71287383       7.17143230
Te      45.58597500      33.83096000       8.54215845
Te      43.84253600      37.05436226       9.14063751
Te      45.58597500      42.43313891       5.00000000
Te      43.84253600      45.65654118       5.59847906
Mo      43.84253600      41.77462670       6.96918968
Mo      45.58597500      44.07906583       7.17143230
Te      45.58597500      40.19715200       8.54215845
Te      43.84253600      43.42055426       9.14063751
Te      45.58597500      48.79933091       5.00000000
Te      43.84253600      52.02273318       5.59847906
Mo      43.84253600      48.14081870       6.96918968
Mo      45.58597500      50.44525783       7.17143230
Te      45.58597500      46.56334400       8.54215845
Te      43.84253600      49.78674626       9.14063751
Te      45.58597500      55.16552291       5.00000000
Te      43.84253600      58.38892518       5.59847906
Mo      43.84253600      54.50701070       6.96918968
Mo      45.58597500      56.81144983       7.17143230
Te      45.58597500      52.92953600       8.54215845
Te      43.84253600      56.15293826       9.14063751
Te      45.58597500      61.53171491       5.00000000
Te      43.84253600      64.75511718       5.59847906
Mo      43.84253600      60.87320270       6.96918968
Mo      45.58597500      63.17764183       7.17143230
Te      45.58597500      59.29572800       8.54215845
Te      43.84253600      62.51913026       9.14063751
Te      49.07285300       4.23598691       5.00000000
Te      47.32941400       7.45938918       5.59847906
Mo      47.32941400       3.57747470       6.96918968
Mo      49.07285300       5.88191383       7.17143230
Te      49.07285300       2.00000000       8.54215845
Te      47.32941400       5.22340226       9.14063751
Te      49.07285300      10.60217891       5.00000000
Te      47.32941400      13.82558118       5.59847906
Mo      47.32941400       9.94366670       6.96918968
Mo      49.07285300      12.24810583       7.17143230
Te      49.07285300       8.36619200       8.54215845
Te      47.32941400      11.58959426       9.14063751
Te      49.07285300      16.96837091       5.00000000
Te      47.32941400      20.19177318       5.59847906
Mo      47.32941400      16.30985870       6.96918968
Mo      49.07285300      18.61429783       7.17143230
Te      49.07285300      14.73238400       8.54215845
Te      47.32941400      17.95578626       9.14063751
Te      49.07285300      23.33456291       5.00000000
Te      47.32941400      26.55796518       5.59847906
Mo      47.32941400      22.67605070       6.96918968
Mo      49.07285300      24.98048983       7.17143230
Te      49.07285300      21.09857600       8.54215845
Te      47.32941400      24.32197826       9.14063751
Te      49.07285300      29.70075491       5.00000000
Te      47.32941400      32.92415718       5.59847906
Mo      47.32941400      29.04224270       6.96918968
Mo      49.07285300      31.34668183       7.17143230
Te      49.07285300      27.46476800       8.54215845
Te      47.32941400      30.68817026       9.14063751
Te      49.07285300      36.06694691       5.00000000
Te      47.32941400      39.29034918       5.59847906
Mo      47.32941400      35.40843470       6.96918968
Mo      49.07285300      37.71287383       7.17143230
Te      49.07285300      33.83096000       8.54215845
Te      47.32941400      37.05436226       9.14063751
Te      49.07285300      42.43313891       5.00000000
Te      47.32941400      45.65654118       5.59847906
Mo      47.32941400      41.77462670       6.96918968
Mo      49.07285300      44.07906583       7.17143230
Te      49.07285300      40.19715200       8.54215845
Te      47.32941400      43.42055426       9.14063751
Te      49.07285300      48.79933091       5.00000000
Te      47.32941400      52.02273318       5.59847906
Mo      47.32941400      48.14081870       6.96918968
Mo      49.07285300      50.44525783       7.17143230
Te      49.07285300      46.56334400       8.54215845
Te      47.32941400      49.78674626       9.14063751
Te      49.07285300      55.16552291       5.00000000
Te      47.32941400      58.38892518       5.59847906
Mo      47.32941400      54.50701070       6.96918968
Mo      49.07285300      56.81144983       7.17143230
Te      49.07285300      52.92953600       8.54215845
Te      47.32941400      56.15293826       9.14063751
Te      49.07285300      61.53171491       5.00000000
Te      47.32941400      64.75511718       5.59847906
Mo      47.32941400      60.87320270       6.96918968
Mo      49.07285300      63.17764183       7.17143230
Te      49.07285300      59.29572800       8.54215845
Te      47.32941400      62.51913026       9.14063751
Te      52.55973100       4.23598691       5.00000000
Te      50.81629200       7.45938918       5.59847906
Mo      50.81629200       3.57747470       6.96918968
Mo      52.55973100       5.88191383       7.17143230
Te      52.55973100       2.00000000       8.54215845
Te      50.81629200       5.22340226       9.14063751
Te      52.55973100      10.60217891       5.00000000
Te      50.81629200      13.82558118       5.59847906
Mo      50.81629200       9.94366670       6.96918968
Mo      52.55973100      12.24810583       7.17143230
Te      52.55973100       8.36619200       8.54215845
Te      50.81629200      11.58959426       9.14063751
Te      52.55973100      16.96837091       5.00000000
Te      50.81629200      20.19177318       5.59847906
Mo      50.81629200      16.30985870       6.96918968
Mo      52.55973100      18.61429783       7.17143230
Te      52.55973100      14.73238400       8.54215845
Te      50.81629200      17.95578626       9.14063751
Te      52.55973100      23.33456291       5.00000000
Te      50.81629200      26.55796518       5.59847906
Mo      50.81629200      22.67605070       6.96918968
Mo      52.55973100      24.98048983       7.17143230
Te      52.55973100      21.09857600       8.54215845
Te      50.81629200      24.32197826       9.14063751
Te      52.55973100      29.70075491       5.00000000
Te      50.81629200      32.92415718       5.59847906
Mo      50.81629200      29.04224270       6.96918968
Mo      52.55973100      31.34668183       7.17143230
Te      52.55973100      27.46476800       8.54215845
Te      50.81629200      30.68817026       9.14063751
Te      52.55973100      36.06694691       5.00000000
Te      50.81629200      39.29034918       5.59847906
Mo      50.81629200      35.40843470       6.96918968
Mo      52.55973100      37.71287383       7.17143230
Te      52.55973100      33.83096000       8.54215845
Te      50.81629200      37.05436226       9.14063751
Te      52.55973100      42.43313891       5.00000000
Te      50.81629200      45.65654118       5.59847906
Mo      50.81629200      41.77462670       6.96918968
Mo      52.55973100      44.07906583       7.17143230
Te      52.55973100      40.19715200       8.54215845
Te      50.81629200      43.42055426       9.14063751
Te      52.55973100      48.79933091       5.00000000
Te      50.81629200      52.02273318       5.59847906
Mo      50.81629200      48.14081870       6.96918968
Mo      52.55973100      50.44525783       7.17143230
Te      52.55973100      46.56334400       8.54215845
Te      50.81629200      49.78674626       9.14063751
Te      52.55973100      55.16552291       5.00000000
Te      50.81629200      58.38892518       5.59847906
Mo      50.81629200      54.50701070       6.96918968
Mo      52.55973100      56.81144983       7.17143230
Te      52.55973100      52.92953600       8.54215845
Te      50.81629200      56.15293826       9.14063751
Te      52.55973100      61.53171491       5.00000000
Te      50.81629200      64.75511718       5.59847906
Mo      50.81629200      60.87320270       6.96918968
Mo      52.55973100      63.17764183       7.17143230
Te      52.55973100      59.29572800       8.54215845
Te      50.81629200      62.51913026       9.14063751
Te      56.04660900       4.23598691       5.00000000
Te      54.30317000       7.45938918       5.59847906
Mo      54.30317000       3.57747470       6.96918968
Mo      56.04660900       5.88191383       7.17143230
Te      56.04660900       2.00000000       8.54215845
Te      54.30317000       5.22340226       9.14063751
Te      56.04660900      10.60217891       5.00000000
Te      54.30317000      13.82558118       5.59847906
Mo      54.30317000       9.94366670       6.96918968
Mo      56.04660900      12.24810583       7.17143230
Te      56.04660900       8.36619200       8.54215845
Te      54.30317000      11.58959426       9.14063751
Te      56.04660900      16.96837091       5.00000000
Te      54.30317000      20.19177318       5.59847906
Mo      54.30317000      16.30985870       6.96918968
Mo      56.04660900      18.61429783       7.17143230
Te      56.04660900      14.73238400       8.54215845
Te      54.30317000      17.95578626       9.14063751
Te      56.04660900      23.33456291       5.00000000
Te      54.30317000      26.55796518       5.59847906
Mo      54.30317000      22.67605070       6.96918968
Mo      56.04660900      24.98048983       7.17143230
Te      56.04660900      21.09857600       8.54215845
Te      54.30317000      24.32197826       9.14063751
Te      56.04660900      29.70075491       5.00000000
Te      54.30317000      32.92415718       5.59847906
Mo      54.30317000      29.04224270       6.96918968
Mo      56.04660900      31.34668183       7.17143230
Te      56.04660900      27.46476800       8.54215845
Te      54.30317000      30.68817026       9.14063751
Te      56.04660900      36.06694691       5.00000000
Te      54.30317000      39.29034918       5.59847906
Mo      54.30317000      35.40843470       6.96918968
Mo      56.04660900      37.71287383       7.17143230
Te      56.04660900      33.83096000       8.54215845
Te      54.30317000      37.05436226       9.14063751
Te      56.04660900      42.43313891       5.00000000
Te      54.30317000      45.65654118       5.59847906
Mo      54.30317000      41.77462670       6.96918968
Mo      56.04660900      44.07906583       7.17143230
Te      56.04660900      40.19715200       8.54215845
Te      54.30317000      43.42055426       9.14063751
Te      56.04660900      48.79933091       5.00000000
Te      54.30317000      52.02273318       5.59847906
Mo      54.30317000      48.14081870       6.96918968
Mo      56.04660900      50.44525783       7.17143230
Te      56.04660900      46.56334400       8.54215845
Te      54.30317000      49.78674626       9.14063751
Te      56.04660900      55.16552291       5.00000000
Te      54.30317000      58.38892518       5.59847906
Mo      54.30317000      54.50701070       6.96918968
Mo      56.04660900      56.81144983       7.17143230
Te      56.04660900      52.92953600       8.54215845
Te      54.30317000      56.15293826       9.14063751
Te      56.04660900      61.53171491       5.00000000
Te      54.30317000      64.75511718       5.59847906
Mo      54.30317000      60.87320270       6.96918968
Mo      56.04660900      63.17764183       7.17143230
Te      56.04660900      59.29572800       8.54215845
Te      54.30317000      62.51913026       9.14063751
Te      59.53348700       4.23598691       5.00000000
Te      57.79004800       7.45938918       5.59847906
Mo      57.79004800       3.57747470       6.96918968
Mo      59.53348700       5.88191383       7.17143230
Te      59.53348700       2.00000000       8.54215845
Te      57.79004800       5.22340226       9.14063751
Te      59.53348700      10.60217891       5.00000000
Te      57.79004800      13.82558118       5.59847906
Mo      57.79004800       9.94366670       6.96918968
Mo      59.53348700      12.24810583       7.17143230
Te      59.53348700       8.36619200       8.54215845
Te      57.79004800      11.58959426       9.14063751
Te      59.53348700      16.96837091       5.00000000
Te      57.79004800      20.19177318       5.59847906
Mo      57.79004800      16.30985870       6.96918968
Mo      59.53348700      18.61429783       7.17143230
Te      59.53348700      14.73238400       8.54215845
Te      57.79004800      17.95578626       9.14063751
Te      59.53348700      23.33456291       5.00000000
Te      57.79004800      26.55796518       5.59847906
Mo      57.79004800      22.67605070       6.96918968
Mo      59.53348700      24.98048983       7.17143230
Te      59.53348700      21.09857600       8.54215845
Te      57.79004800      24.32197826       9.14063751
Te      59.53348700      29.70075491       5.00000000
Te      57.79004800      32.92415718       5.59847906
Mo      57.79004800      29.04224270       6.96918968
Mo      59.53348700      31.34668183       7.17143230
Te      59.53348700      27.46476800       8.54215845
Te      57.79004800      30.68817026       9.14063751
Te      59.53348700      36.06694691       5.00000000
Te      57.79004800      39.29034918       5.59847906
Mo      57.79004800      35.40843470       6.96918968
Mo      59.53348700      37.71287383       7.17143230
Te      59.53348700      33.83096000       8.54215845
Te      57.79004800      37.05436226       9.14063751
Te      59.53348700      42.43313891       5.00000000
Te      57.79004800      45.65654118       5.59847906
Mo      57.79004800      41.77462670       6.96918968
Mo      59.53348700      44.07906583       7.17143230
Te      59.53348700      40.19715200       8.54215845
Te      57.79004800      43.42055426       9.14063751
Te      59.53348700      48.79933091       5.00000000
Te      57.79004800      52.02273318       5.59847906
Mo      57.79004800      48.14081870       6.96918968
Mo      59.53348700      50.44525783       7.17143230
Te      59.53348700      46.56334400       8.54215845
Te      57.79004800      49.78674626       9.14063751
Te      59.53348700      55.16552291       5.00000000
Te      57.79004800      58.38892518       5.59847906
Mo      57.79004800      54.50701070       6.96918968
Mo      59.53348700      56.81144983       7.17143230
Te      59.53348700      52.92953600       8.54215845
Te      57.79004800      56.15293826       9.14063751
Te      59.53348700      61.53171491       5.00000000
Te      57.79004800      64.75511718       5.59847906
Mo      57.79004800      60.87320270       6.96918968
Mo      59.53348700      63.17764183       7.17143230
Te      59.53348700      59.29572800       8.54215845
Te      57.79004800      62.51913026       9.14063751
Te      63.02036500       4.23598691       5.00000000
Te      61.27692600       7.45938918       5.59847906
Mo      61.27692600       3.57747470       6.96918968
Mo      63.02036500       5.88191383       7.17143230
Te      63.02036500       2.00000000       8.54215845
Te      61.27692600       5.22340226       9.14063751
Te      63.02036500      10.60217891       5.00000000
Te      61.27692600      13.82558118       5.59847906
Mo      61.27692600       9.94366670       6.96918968
Mo      63.02036500      12.24810583       7.17143230
Te      63.02036500       8.36619200       8.54215845
Te      61.27692600      11.58959426       9.14063751
Te      63.02036500      16.96837091       5.00000000
Te      61.27692600      20.19177318       5.59847906
Mo      61.27692600      16.30985870       6.96918968
Mo      63.02036500      18.61429783       7.17143230
Te      63.02036500      14.73238400       8.54215845
Te      61.27692600      17.95578626       9.14063751
Te      63.02036500      23.33456291       5.00000000
Te      61.27692600      26.55796518       5.59847906
Mo      61.27692600      22.67605070       6.96918968
Mo      63.02036500      24.98048983       7.17143230
Te      63.02036500      21.09857600       8.54215845
Te      61.27692600      24.32197826       9.14063751
Te      63.02036500      29.70075491       5.00000000
Te      61.27692600      32.92415718       5.59847906
Mo      61.27692600      29.04224270       6.96918968
Mo      63.02036500      31.34668183       7.17143230
Te      63.02036500      27.46476800       8.54215845
Te      61.27692600      30.68817026       9.14063751
Te      63.02036500      36.06694691       5.00000000
Te      61.27692600      39.29034918       5.59847906
Mo      61.27692600      35.40843470       6.96918968
Mo      63.02036500      37.71287383       7.17143230
Te      63.02036500      33.83096000       8.54215845
Te      61.27692600      37.05436226       9.14063751
Te      63.02036500      42.43313891       5.00000000
Te      61.27692600      45.65654118       5.59847906
Mo      61.27692600      41.77462670       6.96918968
Mo      63.02036500      44.07906583       7.17143230
Te      63.02036500      40.19715200       8.54215845
Te      61.27692600      43.42055426       9.14063751
Te      63.02036500      48.79933091       5.00000000
Te      61.27692600      52.02273318       5.59847906
Mo      61.27692600      48.14081870       6.96918968
Mo      63.02036500      50.44525783       7.17143230
Te      63.02036500      46.56334400       8.54215845
Te      61.27692600      49.78674626       9.14063751
Te      63.02036500      55.16552291       5.00000000
Te      61.27692600      58.38892518       5.59847906
Mo      61.27692600      54.50701070       6.96918968
Mo      63.02036500      56.81144983       7.17143230
Te      63.02036500      52.92953600       8.54215845
Te      61.27692600      56.15293826       9.14063751
Te      63.02036500      61.53171491       5.00000000
Te      61.27692600      64.75511718       5.59847906
Mo      61.27692600      60.87320270       6.96918968
Mo      63.02036500      63.17764183       7.17143230
Te      63.02036500      59.29572800       8.54215845
Te      61.27692600      62.51913026       9.14063751
Te      66.50724300       4.23598691       5.00000000
Te      64.76380400       7.45938918       5.59847906
Mo      64.76380400       3.57747470       6.96918968
Mo      66.50724300       5.88191383       7.17143230
Te      66.50724300       2.00000000       8.54215845
Te      64.76380400       5.22340226       9.14063751
Te      66.50724300      10.60217891       5.00000000
Te      64.76380400      13.82558118       5.59847906
Mo      64.76380400       9.94366670       6.96918968
Mo      66.50724300      12.24810583       7.17143230
Te      66.50724300       8.36619200       8.54215845
Te      64.76380400      11.58959426       9.14063751
Te      66.50724300      16.96837091       5.00000000
Te      64.76380400      20.19177318       5.59847906
Mo      64.76380400      16.30985870       6.96918968
Mo      66.50724300      18.61429783       7.17143230
Te      66.50724300      14.73238400       8.54215845
Te      64.76380400      17.95578626       9.14063751
Te      66.50724300      23.33456291       5.00000000
Te      64.76380400      26.55796518       5.59847906
Mo      64.76380400      22.67605070       6.96918968
Mo      66.50724300      24.98048983       7.17143230
Te      66.50724300      21.09857600       8.54215845
Te      64.76380400      24.32197826       9.14063751
Te      66.50724300      29.70075491       5.00000000
Te      64.76380400      32.92415718       5.59847906
Mo      64.76380400      29.04224270       6.96918968
Mo      66.50724300      31.34668183       7.17143230
Te      66.50724300      27.46476800       8.54215845
Te      64.76380400      30.68817026       9.14063751
Te      66.50724300      36.06694691       5.00000000
Te      64.76380400      39.29034918       5.59847906
Mo      64.76380400      35.40843470       6.96918968
Mo      66.50724300      37.71287383       7.17143230
Te      66.50724300      33.83096000       8.54215845
Te      64.76380400      37.05436226       9.14063751
Te      66.50724300      42.43313891       5.00000000
Te      64.76380400      45.65654118       5.59847906
Mo      64.76380400      41.77462670       6.96918968
Mo      66.50724300      44.07906583       7.17143230
Te      66.50724300      40.19715200       8.54215845
Te      64.76380400      43.42055426       9.14063751
Te      66.50724300      48.79933091       5.00000000
Te      64.76380400      52.02273318       5.59847906
Mo      64.76380400      48.14081870       6.96918968
Mo      66.50724300      50.44525783       7.17143230
Te      66.50724300      46.56334400       8.54215845
Te      64.76380400      49.78674626       9.14063751
Te      66.50724300      55.16552291       5.00000000
Te      64.76380400      58.38892518       5.59847906
Mo      64.76380400      54.50701070       6.96918968
Mo      66.50724300      56.81144983       7.17143230
Te      66.50724300      52.92953600       8.54215845
Te      64.76380400      56.15293826       9.14063751
Te      66.50724300      61.53171491       5.00000000
Te      64.76380400      64.75511718       5.59847906
Mo      64.76380400      60.87320270       6.96918968
Mo      66.50724300      63.17764183       7.17143230
Te      66.50724300      59.29572800       8.54215845
Te      64.76380400      62.51913026       9.14063751
Te      69.99412100       4.23598691       5.00000000
Te      68.25068200       7.45938918       5.59847906
Mo      68.25068200       3.57747470       6.96918968
Mo      69.99412100       5.88191383       7.17143230
Te      69.99412100       2.00000000       8.54215845
Te      68.25068200       5.22340226       9.14063751
Te      69.99412100      10.60217891       5.00000000
Te      68.25068200      13.82558118       5.59847906
Mo      68.25068200       9.94366670       6.96918968
Mo      69.99412100      12.24810583       7.17143230
Te      69.99412100       8.36619200       8.54215845
Te      68.25068200      11.58959426       9.14063751
Te      69.99412100      16.96837091       5.00000000
Te      68.25068200      20.19177318       5.59847906
Mo      68.25068200      16.30985870       6.96918968
Mo      69.99412100      18.61429783       7.17143230
Te      69.99412100      14.73238400       8.54215845
Te      68.25068200      17.95578626       9.14063751
Te      69.99412100      23.33456291       5.00000000
Te      68.25068200      26.55796518       5.59847906
Mo      68.25068200      22.67605070       6.96918968
Mo      69.99412100      24.98048983       7.17143230
Te      69.99412100      21.09857600       8.54215845
Te      68.25068200      24.32197826       9.14063751
Te      69.99412100      29.70075491       5.00000000
Te      68.25068200      32.92415718       5.59847906
Mo      68.25068200      29.04224270       6.96918968
Mo      69.99412100      31.34668183       7.17143230
Te      69.99412100      27.46476800       8.54215845
Te      68.25068200      30.68817026       9.14063751
Te      69.99412100      36.06694691       5.00000000
Te      68.25068200      39.29034918       5.59847906
Mo      68.25068200      35.40843470       6.96918968
Mo      69.99412100      37.71287383       7.17143230
Te      69.99412100      33.83096000       8.54215845
Te      68.25068200      37.05436226       9.14063751
Te      69.99412100      42.43313891       5.00000000
Te      68.25068200      45.65654118       5.59847906
Mo      68.25068200      41.77462670       6.96918968
Mo      69.99412100      44.07906583       7.17143230
Te      69.99412100      40.19715200       8.54215845
Te      68.25068200      43.42055426       9.14063751
Te      69.99412100      48.79933091       5.00000000
Te      68.25068200      52.02273318       5.59847906
Mo      68.25068200      48.14081870       6.96918968
Mo      69.99412100      50.44525783       7.17143230
Te      69.99412100      46.56334400       8.54215845
Te      68.25068200      49.78674626       9.14063751
Te      69.99412100      55.16552291       5.00000000
Te      68.25068200      58.38892518       5.59847906
Mo      68.25068200      54.50701070       6.96918968
Mo      69.99412100      56.81144983       7.17143230
Te      69.99412100      52.92953600       8.54215845
Te      68.25068200      56.15293826       9.14063751
Te      69.99412100      61.53171491       5.00000000
Te      68.25068200      64.75511718       5.59847906
Mo      68.25068200      60.87320270       6.96918968
Mo      69.99412100      63.17764183       7.17143230
Te      69.99412100      59.29572800       8.54215845
Te      68.25068200      62.51913026       9.14063751
