1200
Lattice="100.57000000000001 0.0 0.0 0.0 60.716003693842886 0.0 0.0 0.0 3.19" Properties=species:S:1:pos:R:3 pbc="T T F"
Ta      33.63500000       2.00000000       1.59500000
S       35.30000000       2.96128820       3.19000000
S       33.63500000       3.92257640       0.00000000
Ta      31.97000000       4.88386459       1.59500000
S       33.63500000       5.84515279       3.19000000
S       31.97000000       6.80644099       0.00000000
Ta      30.30500000       7.76772919       1.59500000
S       31.97000000       8.72901739       3.19000000
S       30.30500000       9.69030559       0.00000000
Ta      28.64000000      10.65159378       1.59500000
S       30.30500000      11.61288198       3.19000000
S       28.64000000      12.57417018       0.00000000
Ta      26.97500000      13.53545838       1.59500000
S       28.64000000      14.49674658       3.19000000
S       26.97500000      15.45803477       0.00000000
Ta      25.31000000      16.41932297       1.59500000
S       26.97500000      17.38061117       3.19000000
S       25.31000000      18.34189937       0.00000000
Ta      23.64500000      19.30318757       1.59500000
S       25.31000000      20.26447577       3.19000000
S       23.64500000      21.22576396       0.00000000
Ta      21.98000000      22.18705216       1.59500000
S       23.64500000      23.14834036       3.19000000
S       21.98000000      24.10962856       0.00000000
Ta      20.31500000      25.07091676       1.59500000
S       21.98000000      26.03220496       3.19000000
S       20.31500000      26.99349315       0.00000000
Ta      18.65000000      27.95478135       1.59500000
S       20.31500000      28.91606955       3.19000000
S       18.65000000      29.87735775       0.00000000
Ta      16.98500000      30.83864595       1.59500000
S       18.65000000      31.79993414       3.19000000
S       16.98500000      32.76122234       0.00000000
Ta      15.32000000      33.72251054       1.59500000
S       16.98500000      34.68379874       3.19000000
S       15.32000000      35.64508694       0.00000000
Ta      13.65500000      36.60637514       1.59500000
S       15.32000000      37.56766333       3.19000000
S       13.65500000      38.52895153       0.00000000
Ta      11.99000000      39.49023973       1.59500000
S       13.65500000      40.45152793       3.19000000
S       11.99000000      41.41281613       0.00000000
Ta      10.32500000      42.37410432       1.59500000
S       11.99000000      43.33539252       3.19000000
S       10.32500000      44.29668072       0.00000000
Ta       8.66000000      45.25796892       1.59500000
S       10.32500000      46.21925712       3.19000000
S        8.66000000      47.18054532       0.00000000
Ta       6.99500000      48.14183351       1.59500000
S        8.66000000      49.10312171       3.19000000
S        6.99500000      50.06440991       0.00000000
Ta       5.33000000      51.02569811       1.59500000
S        6.99500000      51.98698631       3.19000000
S        5.33000000      52.94827450       0.00000000
Ta       3.66500000      53.90956270       1.59500000
S        5.33000000      54.87085090       3.19000000
S        3.66500000      55.83213910       0.00000000
Ta       2.00000000      56.79342730       1.59500000
S        3.66500000      57.75471550       3.19000000
S        2.00000000      58.71600369       0.00000000
Ta      36.96500000       2.00000000       1.59500000
S       38.63000000       2.96128820       3.19000000
S       36.96500000       3.92257640       0.00000000
Ta      35.30000000       4.88386459       1.59500000
S       36.96500000       5.84515279       3.19000000
S       35.30000000       6.80644099       0.00000000
Ta      33.63500000       7.76772919       1.59500000
S       35.30000000       8.72901739       3.19000000
S       33.63500000       9.69030559       0.00000000
Ta      31.97000000      10.65159378       1.59500000
S       33.63500000      11.61288198       3.19000000
S       31.97000000      12.57417018       0.00000000
Ta      30.30500000      13.53545838       1.59500000
S       31.97000000      14.49674658       3.19000000
S       30.30500000      15.45803477       0.00000000
Ta      28.64000000      16.41932297       1.59500000
S       30.30500000      17.38061117       3.19000000
S       28.64000000      18.34189937       0.00000000
Ta      26.97500000      19.30318757       1.59500000
S       28.64000000      20.26447577       3.19000000
S       26.97500000      21.22576396       0.00000000
Ta      25.31000000      22.18705216       1.59500000
S       26.97500000      23.14834036       3.19000000
S       25.31000000      24.10962856       0.00000000
Ta      23.64500000      25.07091676       1.59500000
S       25.31000000      26.03220496       3.19000000
S       23.64500000      26.99349315       0.00000000
Ta      21.98000000      27.95478135       1.59500000
S       23.64500000      28.91606955       3.19000000
S       21.98000000      29.87735775       0.00000000
Ta      20.31500000      30.83864595       1.59500000
S       21.98000000      31.79993414       3.19000000
S       20.31500000      32.76122234       0.00000000
Ta      18.65000000      33.72251054       1.59500000
S       20.31500000      34.68379874       3.19000000
S       18.65000000      35.64508694       0.00000000
Ta      16.98500000      36.60637514       1.59500000
S       18.65000000      37.56766333       3.19000000
S       16.98500000      38.52895153       0.00000000
Ta      15.32000000      39.49023973       1.59500000
S       16.98500000      40.45152793       3.19000000
S       15.32000000      41.41281613       0.00000000
Ta      13.65500000      42.37410432       1.59500000
S       15.32000000      43.33539252       3.19000000
S       13.65500000      44.29668072       0.00000000
Ta      11.99000000      45.25796892       1.59500000
S       13.65500000      46.21925712       3.19000000
S       11.99000000      47.18054532       0.00000000
Ta      10.32500000      48.14183351       1.59500000
S       11.99000000      49.10312171       3.19000000
S       10.32500000      50.06440991       0.00000000
Ta       8.66000000      51.02569811       1.59500000
S       10.32500000      51.98698631       3.19000000
S        8.66000000      52.94827450       0.00000000
Ta       6.99500000      53.90956270       1.59500000
S        8.66000000      54.87085090       3.19000000
S        6.99500000      55.83213910       0.00000000
Ta       5.33000000      56.79342730       1.59500000
S        6.99500000      57.75471550       3.19000000
S        5.33000000      58.71600369       0.00000000
Ta      40.29500000       2.00000000       1.59500000
S       41.96000000       2.96128820       3.19000000
S       40.29500000       3.92257640       0.00000000
Ta      38.63000000       4.88386459       1.59500000
S       40.29500000       5.84515279       3.19000000
S       38.63000000       6.80644099       0.00000000
Ta      36.96500000       7.76772919       1.59500000
S       38.63000000       8.72901739       3.19000000
S       36.96500000       9.69030559       0.00000000
Ta      35.30000000      10.65159378       1.59500000
S       36.96500000      11.61288198       3.19000000
S       35.30000000      12.57417018       0.00000000
Ta      33.63500000      13.53545838       1.59500000
S       35.30000000      14.49674658       3.19000000
S       33.63500000      15.45803477       0.00000000
Ta      31.97000000      16.41932297       1.59500000
S       33.63500000      17.38061117       3.19000000
S       31.97000000      18.34189937       0.00000000
Ta      30.30500000      19.30318757       1.59500000
S       31.97000000      20.26447577       3.19000000
S       30.30500000      21.22576396       0.00000000
Ta      28.64000000      22.18705216       1.59500000
S       30.30500000      23.14834036       3.19000000
S       28.64000000      24.10962856       0.00000000
Ta      26.97500000      25.07091676       1.59500000
S       28.64000000      26.03220496       3.19000000
S       26.97500000      26.99349315       0.00000000
Ta      25.31000000      27.95478135       1.59500000
S       26.97500000      28.91606955       3.19000000
S       25.31000000      29.87735775       0.00000000
Ta      23.64500000      30.83864595       1.59500000
S       25.31000000      31.79993414       3.19000000
S       23.64500000      32.76122234       0.00000000
Ta      21.98000000      33.72251054       1.59500000
S       23.64500000      34.68379874       3.19000000
S       21.98000000      35.64508694       0.00000000
Ta      20.31500000      36.60637514       1.59500000
S       21.98000000      37.56766333       3.19000000
S       20.31500000      38.52895153       0.00000000
Ta      18.65000000      39.49023973       1.59500000
S       20.31500000      40.45152793       3.19000000
S       18.65000000      41.41281613       0.00000000
Ta      16.98500000      42.37410432       1.59500000
S       18.65000000      43.33539252       3.19000000
S       16.98500000      44.29668072       0.00000000
Ta      15.32000000      45.25796892       1.59500000
S       16.98500000      46.21925712       3.19000000
S       15.32000000      47.18054532       0.00000000
Ta      13.65500000      48.14183351       1.59500000
S       15.32000000      49.10312171       3.19000000
S       13.65500000      50.06440991       0.00000000
Ta      11.99000000      51.02569811       1.59500000
S       13.65500000      51.98698631       3.19000000
S       11.99000000      52.94827450       0.00000000
Ta      10.32500000      53.90956270       1.59500000
S       11.99000000      54.87085090       3.19000000
S       10.32500000      55.83213910       0.00000000
Ta       8.66000000      56.79342730       1.59500000
S       10.32500000      57.75471550       3.19000000
S        8.66000000      58.71600369       0.00000000
Ta      43.62500000       2.00000000       1.59500000
S       45.29000000       2.96128820       3.19000000
S       43.62500000       3.92257640       0.00000000
Ta      41.96000000       4.88386459       1.59500000
S       43.62500000       5.84515279       3.19000000
S       41.96000000       6.80644099       0.00000000
Ta      40.29500000       7.76772919       1.59500000
S       41.96000000       8.72901739       3.19000000
S       40.29500000       9.69030559       0.00000000
Ta      38.63000000      10.65159378       1.59500000
S       40.29500000      11.61288198       3.19000000
S       38.63000000      12.57417018       0.00000000
Ta      36.96500000      13.53545838       1.59500000
S       38.63000000      14.49674658       3.19000000
S       36.96500000      15.45803477       0.00000000
Ta      35.30000000      16.41932297       1.59500000
S       36.96500000      17.38061117       3.19000000
S       35.30000000      18.34189937       0.00000000
Ta      33.63500000      19.30318757       1.59500000
S       35.30000000      20.26447577       3.19000000
S       33.63500000      21.22576396       0.00000000
Ta      31.97000000      22.18705216       1.59500000
S       33.63500000      23.14834036       3.19000000
S       31.97000000      24.10962856       0.00000000
Ta      30.30500000      25.07091676       1.59500000
S       31.97000000      26.03220496       3.19000000
S       30.30500000      26.99349315       0.00000000
Ta      28.64000000      27.95478135       1.59500000
S       30.30500000      28.91606955       3.19000000
S       28.64000000      29.87735775       0.00000000
Ta      26.97500000      30.83864595       1.59500000
S       28.64000000      31.79993414       3.19000000
S       26.97500000      32.76122234       0.00000000
Ta      25.31000000      33.72251054       1.59500000
S       26.97500000      34.68379874       3.19000000
S       25.31000000      35.64508694       0.00000000
Ta      23.64500000      36.60637514       1.59500000
S       25.31000000      37.56766333       3.19000000
S       23.64500000      38.52895153       0.00000000
Ta      21.98000000      39.49023973       1.59500000
S       23.64500000      40.45152793       3.19000000
S       21.98000000      41.41281613       0.00000000
Ta      20.31500000      42.37410432       1.59500000
S       21.98000000      43.33539252       3.19000000
S       20.31500000      44.29668072       0.00000000
Ta      18.65000000      45.25796892       1.59500000
S       20.31500000      46.21925712       3.19000000
S       18.65000000      47.18054532       0.00000000
Ta      16.98500000      48.14183351       1.59500000
S       18.65000000      49.10312171       3.19000000
S       16.98500000      50.06440991       0.00000000
Ta      15.32000000      51.02569811       1.59500000
S       16.98500000      51.98698631       3.19000000
S       15.32000000      52.94827450       0.00000000
Ta      13.65500000      53.90956270       1.59500000
S       15.32000000      54.87085090       3.19000000
S       13.65500000      55.83213910       0.00000000
Ta      11.99000000      56.79342730       1.59500000
S       13.65500000      57.75471550       3.19000000
S       11.99000000      58.71600369       0.00000000
Ta      46.95500000       2.00000000       1.59500000
S       48.62000000       2.96128820       3.19000000
S       46.95500000       3.92257640       0.00000000
Ta      45.29000000       4.88386459       1.59500000
S       46.95500000       5.84515279       3.19000000
S       45.29000000       6.80644099       0.00000000
Ta      43.62500000       7.76772919       1.59500000
S       45.29000000       8.72901739       3.19000000
S       43.62500000       9.69030559       0.00000000
Ta      41.96000000      10.65159378       1.59500000
S       43.62500000      11.61288198       3.19000000
S       41.96000000      12.57417018       0.00000000
Ta      40.29500000      13.53545838       1.59500000
S       41.96000000      14.49674658       3.19000000
S       40.29500000      15.45803477       0.00000000
Ta      38.63000000      16.41932297       1.59500000
S       40.29500000      17.38061117       3.19000000
S       38.63000000      18.34189937       0.00000000
Ta      36.96500000      19.30318757       1.59500000
S       38.63000000      20.26447577       3.19000000
S       36.96500000      21.22576396       0.00000000
Ta      35.30000000      22.18705216       1.59500000
S       36.96500000      23.14834036       3.19000000
S       35.30000000      24.10962856       0.00000000
Ta      33.63500000      25.07091676       1.59500000
S       35.30000000      26.03220496       3.19000000
S       33.63500000      26.99349315       0.00000000
Ta      31.97000000      27.95478135       1.59500000
S       33.63500000      28.91606955       3.19000000
S       31.97000000      29.87735775       0.00000000
Ta      30.30500000      30.83864595       1.59500000
S       31.97000000      31.79993414       3.19000000
S       30.30500000      32.76122234       0.00000000
Ta      28.64000000      33.72251054       1.59500000
S       30.30500000      34.68379874       3.19000000
S       28.64000000      35.64508694       0.00000000
Ta      26.97500000      36.60637514       1.59500000
S       28.64000000      37.56766333       3.19000000
S       26.97500000      38.52895153       0.00000000
Ta      25.31000000      39.49023973       1.59500000
S       26.97500000      40.45152793       3.19000000
S       25.31000000      41.41281613       0.00000000
Ta      23.64500000      42.37410432       1.59500000
S       25.31000000      43.33539252       3.19000000
S       23.64500000      44.29668072       0.00000000
Ta      21.98000000      45.25796892       1.59500000
S       23.64500000      46.21925712       3.19000000
S       21.98000000      47.18054532       0.00000000
Ta      20.31500000      48.14183351       1.59500000
S       21.98000000      49.10312171       3.19000000
S       20.31500000      50.06440991       0.00000000
Ta      18.65000000      51.02569811       1.59500000
S       20.31500000      51.98698631       3.19000000
S       18.65000000      52.94827450       0.00000000
Ta      16.98500000      53.90956270       1.59500000
S       18.65000000      54.87085090       3.19000000
S       16.98500000      55.83213910       0.00000000
Ta      15.32000000      56.79342730       1.59500000
S       16.98500000      57.75471550       3.19000000
S       15.32000000      58.71600369       0.00000000
Ta      50.28500000       2.00000000       1.59500000
S       51.95000000       2.96128820       3.19000000
S       50.28500000       3.92257640       0.00000000
Ta      48.62000000       4.88386459       1.59500000
S       50.28500000       5.84515279       3.19000000
S       48.62000000       6.80644099       0.00000000
Ta      46.95500000       7.76772919       1.59500000
S       48.62000000       8.72901739       3.19000000
S       46.95500000       9.69030559       0.00000000
Ta      45.29000000      10.65159378       1.59500000
S       46.95500000      11.61288198       3.19000000
S       45.29000000      12.57417018       0.00000000
Ta      43.62500000      13.53545838       1.59500000
S       45.29000000      14.49674658       3.19000000
S       43.62500000      15.45803477       0.00000000
Ta      41.96000000      16.41932297       1.59500000
S       43.62500000      17.38061117       3.19000000
S       41.96000000      18.34189937       0.00000000
Ta      40.29500000      19.30318757       1.59500000
S       41.96000000      20.26447577       3.19000000
S       40.29500000      21.22576396       0.00000000
Ta      38.63000000      22.18705216       1.59500000
S       40.29500000      23.14834036       3.19000000
S       38.63000000      24.10962856       0.00000000
Ta      36.96500000      25.07091676       1.59500000
S       38.63000000      26.03220496       3.19000000
S       36.96500000      26.99349315       0.00000000
Ta      35.30000000      27.95478135       1.59500000
S       36.96500000      28.91606955       3.19000000
S       35.30000000      29.87735775       0.00000000
Ta      33.63500000      30.83864595       1.59500000
S       35.30000000      31.79993414       3.19000000
S       33.63500000      32.76122234       0.00000000
Ta      31.97000000      33.72251054       1.59500000
S       33.63500000      34.68379874       3.19000000
S       31.97000000      35.64508694       0.00000000
Ta      30.30500000      36.60637514       1.59500000
S       31.97000000      37.56766333       3.19000000
S       30.30500000      38.52895153       0.00000000
Ta      28.64000000      39.49023973       1.59500000
S       30.30500000      40.45152793       3.19000000
S       28.64000000      41.41281613       0.00000000
Ta      26.97500000      42.37410432       1.59500000
S       28.64000000      43.33539252       3.19000000
S       26.97500000      44.29668072       0.00000000
Ta      25.31000000      45.25796892       1.59500000
S       26.97500000      46.21925712       3.19000000
S       25.31000000      47.18054532       0.00000000
Ta      23.64500000      48.14183351       1.59500000
S       25.31000000      49.10312171       3.19000000
S       23.64500000      50.06440991       0.00000000
Ta      21.98000000      51.02569811       1.59500000
S       23.64500000      51.98698631       3.19000000
S       21.98000000      52.94827450       0.00000000
Ta      20.31500000      53.90956270       1.59500000
S       21.98000000      54.87085090       3.19000000
S       20.31500000      55.83213910       0.00000000
Ta      18.65000000      56.79342730       1.59500000
S       20.31500000      57.75471550       3.19000000
S       18.65000000      58.71600369       0.00000000
Ta      53.61500000       2.00000000       1.59500000
S       55.28000000       2.96128820       3.19000000
S       53.61500000       3.92257640       0.00000000
Ta      51.95000000       4.88386459       1.59500000
S       53.61500000       5.84515279       3.19000000
S       51.95000000       6.80644099       0.00000000
Ta      50.28500000       7.76772919       1.59500000
S       51.95000000       8.72901739       3.19000000
S       50.28500000       9.69030559       0.00000000
Ta      48.62000000      10.65159378       1.59500000
S       50.28500000      11.61288198       3.19000000
S       48.62000000      12.57417018       0.00000000
Ta      46.95500000      13.53545838       1.59500000
S       48.62000000      14.49674658       3.19000000
S       46.95500000      15.45803477       0.00000000
Ta      45.29000000      16.41932297       1.59500000
S       46.95500000      17.38061117       3.19000000
S       45.29000000      18.34189937       0.00000000
Ta      43.62500000      19.30318757       1.59500000
S       45.29000000      20.26447577       3.19000000
S       43.62500000      21.22576396       0.00000000
Ta      41.96000000      22.18705216       1.59500000
S       43.62500000      23.14834036       3.19000000
S       41.96000000      24.10962856       0.00000000
Ta      40.29500000      25.07091676       1.59500000
S       41.96000000      26.03220496       3.19000000
S       40.29500000      26.99349315       0.00000000
Ta      38.63000000      27.95478135       1.59500000
S       40.29500000      28.91606955       3.19000000
S       38.63000000      29.87735775       0.00000000
Ta      36.96500000      30.83864595       1.59500000
S       38.63000000      31.79993414       3.19000000
S       36.96500000      32.76122234       0.00000000
Ta      35.30000000      33.72251054       1.59500000
S       36.96500000      34.68379874       3.19000000
S       35.30000000      35.64508694       0.00000000
Ta      33.63500000      36.60637514       1.59500000
S       35.30000000      37.56766333       3.19000000
S       33.63500000      38.52895153       0.00000000
Ta      31.97000000      39.49023973       1.59500000
S       33.63500000      40.45152793       3.19000000
S       31.97000000      41.41281613       0.00000000
Ta      30.30500000      42.37410432       1.59500000
S       31.97000000      43.33539252       3.19000000
S       30.30500000      44.29668072       0.00000000
Ta      28.64000000      45.25796892       1.59500000
S       30.30500000      46.21925712       3.19000000
S       28.64000000      47.18054532       0.00000000
Ta      26.97500000      48.14183351       1.59500000
S       28.64000000      49.10312171       3.19000000
S       26.97500000      50.06440991       0.00000000
Ta      25.31000000      51.02569811       1.59500000
S       26.97500000      51.98698631       3.19000000
S       25.31000000      52.94827450       0.00000000
Ta      23.64500000      53.90956270       1.59500000
S       25.31000000      54.87085090       3.19000000
S       23.64500000      55.83213910       0.00000000
Ta      21.98000000      56.79342730       1.59500000
S       23.64500000      57.75471550       3.19000000
S       21.98000000      58.71600369       0.00000000
Ta      56.94500000       2.00000000       1.59500000
S       58.61000000       2.96128820       3.19000000
S       56.94500000       3.92257640       0.00000000
Ta      55.28000000       4.88386459       1.59500000
S       56.94500000       5.84515279       3.19000000
S       55.28000000       6.80644099       0.00000000
Ta      53.61500000       7.76772919       1.59500000
S       55.28000000       8.72901739       3.19000000
S       53.61500000       9.69030559       0.00000000
Ta      51.95000000      10.65159378       1.59500000
S       53.61500000      11.61288198       3.19000000
S       51.95000000      12.57417018       0.00000000
Ta      50.28500000      13.53545838       1.59500000
S       51.95000000      14.49674658       3.19000000
S       50.28500000      15.45803477       0.00000000
Ta      48.62000000      16.41932297       1.59500000
S       50.28500000      17.38061117       3.19000000
S       48.62000000      18.34189937       0.00000000
Ta      46.95500000      19.30318757       1.59500000
S       48.62000000      20.26447577       3.19000000
S       46.95500000      21.22576396       0.00000000
Ta      45.29000000      22.18705216       1.59500000
S       46.95500000      23.14834036       3.19000000
S       45.29000000      24.10962856       0.00000000
Ta      43.62500000      25.07091676       1.59500000
S       45.29000000      26.03220496       3.19000000
S       43.62500000      26.99349315       0.00000000
Ta      41.96000000      27.95478135       1.59500000
S       43.62500000      28.91606955       3.19000000
S       41.96000000      29.87735775       0.00000000
Ta      40.29500000      30.83864595       1.59500000
S       41.96000000      31.79993414       3.19000000
S       40.29500000      32.76122234       0.00000000
Ta      38.63000000      33.72251054       1.59500000
S       40.29500000      34.68379874       3.19000000
S       38.63000000      35.64508694       0.00000000
Ta      36.96500000      36.60637514       1.59500000
S       38.63000000      37.56766333       3.19000000
S       36.96500000      38.52895153       0.00000000
Ta      35.30000000      39.49023973       1.59500000
S       36.96500000      40.45152793       3.19000000
S       35.30000000      41.41281613       0.00000000
Ta      33.63500000      42.37410432       1.59500000
S       35.30000000      43.33539252       3.19000000
S       33.63500000      44.29668072       0.00000000
Ta      31.97000000      45.25796892       1.59500000
S       33.63500000      46.21925712       3.19000000
S       31.97000000      47.18054532       0.00000000
Ta      30.30500000      48.14183351       1.59500000
S       31.97000000      49.10312171       3.19000000
S       30.30500000      50.06440991       0.00000000
Ta      28.64000000      51.02569811       1.59500000
S       30.30500000      51.98698631       3.19000000
S       28.64000000      52.94827450       0.00000000
Ta      26.97500000      53.90956270       1.59500000
S       28.64000000      54.87085090       3.19000000
S       26.97500000      55.83213910       0.00000000
Ta      25.31000000      56.79342730       1.59500000
S       26.97500000      57.75471550       3.19000000
S       25.31000000      58.71600369       0.00000000
Ta      60.27500000       2.00000000       1.59500000
S       61.94000000       2.96128820       3.19000000
S       60.27500000       3.92257640       0.00000000
Ta      58.61000000       4.88386459       1.59500000
S       60.27500000       5.84515279       3.19000000
S       58.61000000       6.80644099       0.00000000
Ta      56.94500000       7.76772919       1.59500000
S       58.61000000       8.72901739       3.19000000
S       56.94500000       9.69030559       0.00000000
Ta      55.28000000      10.65159378       1.59500000
S       56.94500000      11.61288198       3.19000000
S       55.28000000      12.57417018       0.00000000
Ta      53.61500000      13.53545838       1.59500000
S       55.28000000      14.49674658       3.19000000
S       53.61500000      15.45803477       0.00000000
Ta      51.95000000      16.41932297       1.59500000
S       53.61500000      17.38061117       3.19000000
S       51.95000000      18.34189937       0.00000000
Ta      50.28500000      19.30318757       1.59500000
S       51.95000000      20.26447577       3.19000000
S       50.28500000      21.22576396       0.00000000
Ta      48.62000000      22.18705216       1.59500000
S       50.28500000      23.14834036       3.19000000
S       48.62000000      24.10962856       0.00000000
Ta      46.95500000      25.07091676       1.59500000
S       48.62000000      26.03220496       3.19000000
S       46.95500000      26.99349315       0.00000000
Ta      45.29000000      27.95478135       1.59500000
S       46.95500000      28.91606955       3.19000000
S       45.29000000      29.87735775       0.00000000
Ta      43.62500000      30.83864595       1.59500000
S       45.29000000      31.79993414       3.19000000
S       43.62500000      32.76122234       0.00000000
Ta      41.96000000      33.72251054       1.59500000
S       43.62500000      34.68379874       3.19000000
S       41.96000000      35.64508694       0.00000000
Ta      40.29500000      36.60637514       1.59500000
S       41.96000000      37.56766333       3.19000000
S       40.29500000      38.52895153       0.00000000
Ta      38.63000000      39.49023973       1.59500000
S       40.29500000      40.45152793       3.19000000
S       38.63000000      41.41281613       0.00000000
Ta      36.96500000      42.37410432       1.59500000
S       38.63000000      43.33539252       3.19000000
S       36.96500000      44.29668072       0.00000000
Ta      35.30000000      45.25796892       1.59500000
S       36.96500000      46.21925712       3.19000000
S       35.30000000      47.18054532       0.00000000
Ta      33.63500000      48.14183351       1.59500000
S       35.30000000      49.10312171       3.19000000
S       33.63500000      50.06440991       0.00000000
Ta      31.97000000      51.02569811       1.59500000
S       33.63500000      51.98698631       3.19000000
S       31.97000000      52.94827450       0.00000000
Ta      30.30500000      53.90956270       1.59500000
S       31.97000000      54.87085090       3.19000000
S       30.30500000      55.83213910       0.00000000
Ta      28.64000000      56.79342730       1.59500000
S       30.30500000      57.75471550       3.19000000
S       28.64000000      58.71600369       0.00000000
Ta      63.60500000       2.00000000       1.59500000
S       65.27000000       2.96128820       3.19000000
S       63.60500000       3.92257640       0.00000000
Ta      61.94000000       4.88386459       1.59500000
S       63.60500000       5.84515279       3.19000000
S       61.94000000       6.80644099       0.00000000
Ta      60.27500000       7.76772919       1.59500000
S       61.94000000       8.72901739       3.19000000
S       60.27500000       9.69030559       0.00000000
Ta      58.61000000      10.65159378       1.59500000
S       60.27500000      11.61288198       3.19000000
S       58.61000000      12.57417018       0.00000000
Ta      56.94500000      13.53545838       1.59500000
S       58.61000000      14.49674658       3.19000000
S       56.94500000      15.45803477       0.00000000
Ta      55.28000000      16.41932297       1.59500000
S       56.94500000      17.38061117       3.19000000
S       55.28000000      18.34189937       0.00000000
Ta      53.61500000      19.30318757       1.59500000
S       55.28000000      20.26447577       3.19000000
S       53.61500000      21.22576396       0.00000000
Ta      51.95000000      22.18705216       1.59500000
S       53.61500000      23.14834036       3.19000000
S       51.95000000      24.10962856       0.00000000
Ta      50.28500000      25.07091676       1.59500000
S       51.95000000      26.03220496       3.19000000
S       50.28500000      26.99349315       0.00000000
Ta      48.62000000      27.95478135       1.59500000
S       50.28500000      28.91606955       3.19000000
S       48.62000000      29.87735775       0.00000000
Ta      46.95500000      30.83864595       1.59500000
S       48.62000000      31.79993414       3.19000000
S       46.95500000      32.76122234       0.00000000
Ta      45.29000000      33.72251054       1.59500000
S       46.95500000      34.68379874       3.19000000
S       45.29000000      35.64508694       0.00000000
Ta      43.62500000      36.60637514       1.59500000
S       45.29000000      37.56766333       3.19000000
S       43.62500000      38.52895153       0.00000000
Ta      41.96000000      39.49023973       1.59500000
S       43.62500000      40.45152793       3.19000000
S       41.96000000      41.41281613       0.00000000
Ta      40.29500000      42.37410432       1.59500000
S       41.96000000      43.33539252       3.19000000
S       40.29500000      44.29668072       0.00000000
Ta      38.63000000      45.25796892       1.59500000
S       40.29500000      46.21925712       3.19000000
S       38.63000000      47.18054532       0.00000000
Ta      36.96500000      48.14183351       1.59500000
S       38.63000000      49.10312171       3.19000000
S       36.96500000      50.06440991       0.00000000
Ta      35.30000000      51.02569811       1.59500000
S       36.96500000      51.98698631       3.19000000
S       35.30000000      52.94827450       0.00000000
Ta      33.63500000      53.90956270       1.59500000
S       35.30000000      54.87085090       3.19000000
S       33.63500000      55.83213910       0.00000000
Ta      31.97000000      56.79342730       1.59500000
S       33.63500000      57.75471550       3.19000000
S       31.97000000      58.71600369       0.00000000
Ta      66.93500000       2.00000000       1.59500000
S       68.60000000       2.96128820       3.19000000
S       66.93500000       3.92257640       0.00000000
Ta      65.27000000       4.88386459       1.59500000
S       66.93500000       5.84515279       3.19000000
S       65.27000000       6.80644099       0.00000000
Ta      63.60500000       7.76772919       1.59500000
S       65.27000000       8.72901739       3.19000000
S       63.60500000       9.69030559       0.00000000
Ta      61.94000000      10.65159378       1.59500000
S       63.60500000      11.61288198       3.19000000
S       61.94000000      12.57417018       0.00000000
Ta      60.27500000      13.53545838       1.59500000
S       61.94000000      14.49674658       3.19000000
S       60.27500000      15.45803477       0.00000000
Ta      58.61000000      16.41932297       1.59500000
S       60.27500000      17.38061117       3.19000000
S       58.61000000      18.34189937       0.00000000
Ta      56.94500000      19.30318757       1.59500000
S       58.61000000      20.26447577       3.19000000
S       56.94500000      21.22576396       0.00000000
Ta      55.28000000      22.18705216       1.59500000
S       56.94500000      23.14834036       3.19000000
S       55.28000000      24.10962856       0.00000000
Ta      53.61500000      25.07091676       1.59500000
S       55.28000000      26.03220496       3.19000000
S       53.61500000      26.99349315       0.00000000
Ta      51.95000000      27.95478135       1.59500000
S       53.61500000      28.91606955       3.19000000
S       51.95000000      29.87735775       0.00000000
Ta      50.28500000      30.83864595       1.59500000
S       51.95000000      31.79993414       3.19000000
S       50.28500000      32.76122234       0.00000000
Ta      48.62000000      33.72251054       1.59500000
S       50.28500000      34.68379874       3.19000000
S       48.62000000      35.64508694       0.00000000
Ta      46.95500000      36.60637514       1.59500000
S       48.62000000      37.56766333       3.19000000
S       46.95500000      38.52895153       0.00000000
Ta      45.29000000      39.49023973       1.59500000
S       46.95500000      40.45152793       3.19000000
S       45.29000000      41.41281613       0.00000000
Ta      43.62500000      42.37410432       1.59500000
S       45.29000000      43.33539252       3.19000000
S       43.62500000      44.29668072       0.00000000
Ta      41.96000000      45.25796892       1.59500000
S       43.62500000      46.21925712       3.19000000
S       41.96000000      47.18054532       0.00000000
Ta      40.29500000      48.14183351       1.59500000
S       41.96000000      49.10312171       3.19000000
S       40.29500000      50.06440991       0.00000000
Ta      38.63000000      51.02569811       1.59500000
S       40.29500000      51.98698631       3.19000000
S       38.63000000      52.94827450       0.00000000
Ta      36.96500000      53.90956270       1.59500000
S       38.63000000      54.87085090       3.19000000
S       36.96500000      55.83213910       0.00000000
Ta      35.30000000      56.79342730       1.59500000
S       36.96500000      57.75471550       3.19000000
S       35.30000000      58.71600369       0.00000000
Ta      70.26500000       2.00000000       1.59500000
S       71.93000000       2.96128820       3.19000000
S       70.26500000       3.92257640       0.00000000
Ta      68.60000000       4.88386459       1.59500000
S       70.26500000       5.84515279       3.19000000
S       68.60000000       6.80644099       0.00000000
Ta      66.93500000       7.76772919       1.59500000
S       68.60000000       8.72901739       3.19000000
S       66.93500000       9.69030559       0.00000000
Ta      65.27000000      10.65159378       1.59500000
S       66.93500000      11.61288198       3.19000000
S       65.27000000      12.57417018       0.00000000
Ta      63.60500000      13.53545838       1.59500000
S       65.27000000      14.49674658       3.19000000
S       63.60500000      15.45803477       0.00000000
Ta      61.94000000      16.41932297       1.59500000
S       63.60500000      17.38061117       3.19000000
S       61.94000000      18.34189937       0.00000000
Ta      60.27500000      19.30318757       1.59500000
S       61.94000000      20.26447577       3.19000000
S       60.27500000      21.22576396       0.00000000
Ta      58.61000000      22.18705216       1.59500000
S       60.27500000      23.14834036       3.19000000
S       58.61000000      24.10962856       0.00000000
Ta      56.94500000      25.07091676       1.59500000
S       58.61000000      26.03220496       3.19000000
S       56.94500000      26.99349315       0.00000000
Ta      55.28000000      27.95478135       1.59500000
S       56.94500000      28.91606955       3.19000000
S       55.28000000      29.87735775       0.00000000
Ta      53.61500000      30.83864595       1.59500000
S       55.28000000      31.79993414       3.19000000
S       53.61500000      32.76122234       0.00000000
Ta      51.95000000      33.72251054       1.59500000
S       53.61500000      34.68379874       3.19000000
S       51.95000000      35.64508694       0.00000000
Ta      50.28500000      36.60637514       1.59500000
S       51.95000000      37.56766333       3.19000000
S       50.28500000      38.52895153       0.00000000
Ta      48.62000000      39.49023973       1.59500000
S       50.28500000      40.45152793       3.19000000
S       48.62000000      41.41281613       0.00000000
Ta      46.95500000      42.37410432       1.59500000
S       48.62000000      43.33539252       3.19000000
S       46.95500000      44.29668072       0.00000000
Ta      45.29000000      45.25796892       1.59500000
S       46.95500000      46.21925712       3.19000000
S       45.29000000      47.18054532       0.00000000
Ta      43.62500000      48.14183351       1.59500000
S       45.29000000      49.10312171       3.19000000
S       43.62500000      50.06440991       0.00000000
Ta      41.96000000      51.02569811       1.59500000
S       43.62500000      51.98698631       3.19000000
S       41.96000000      52.94827450       0.00000000
Ta      40.29500000      53.90956270       1.59500000
S       41.96000000      54.87085090       3.19000000
S       40.29500000      55.83213910       0.00000000
Ta      38.63000000      56.79342730       1.59500000
S       40.29500000      57.75471550       3.19000000
S       38.63000000      58.71600369       0.00000000
Ta      73.59500000       2.00000000       1.59500000
S       75.26000000       2.96128820       3.19000000
S       73.59500000       3.92257640       0.00000000
Ta      71.93000000       4.88386459       1.59500000
S       73.59500000       5.84515279       3.19000000
S       71.93000000       6.80644099       0.00000000
Ta      70.26500000       7.76772919       1.59500000
S       71.93000000       8.72901739       3.19000000
S       70.26500000       9.69030559       0.00000000
Ta      68.60000000      10.65159378       1.59500000
S       70.26500000      11.61288198       3.19000000
S       68.60000000      12.57417018       0.00000000
Ta      66.93500000      13.53545838       1.59500000
S       68.60000000      14.49674658       3.19000000
S       66.93500000      15.45803477       0.00000000
Ta      65.27000000      16.41932297       1.59500000
S       66.93500000      17.38061117       3.19000000
S       65.27000000      18.34189937       0.00000000
Ta      63.60500000      19.30318757       1.59500000
S       65.27000000      20.26447577       3.19000000
S       63.60500000      21.22576396       0.00000000
Ta      61.94000000      22.18705216       1.59500000
S       63.60500000      23.14834036       3.19000000
S       61.94000000      24.10962856       0.00000000
Ta      60.27500000      25.07091676       1.59500000
S       61.94000000      26.03220496       3.19000000
S       60.27500000      26.99349315       0.00000000
Ta      58.61000000      27.95478135       1.59500000
S       60.27500000      28.91606955       3.19000000
S       58.61000000      29.87735775       0.00000000
Ta      56.94500000      30.83864595       1.59500000
S       58.61000000      31.79993414       3.19000000
S       56.94500000      32.76122234       0.00000000
Ta      55.28000000      33.72251054       1.59500000
S       56.94500000      34.68379874       3.19000000
S       55.28000000      35.64508694       0.00000000
Ta      53.61500000      36.60637514       1.59500000
S       55.28000000      37.56766333       3.19000000
S       53.61500000      38.52895153       0.00000000
Ta      51.95000000      39.49023973       1.59500000
S       53.61500000      40.45152793       3.19000000
S       51.95000000      41.41281613       0.00000000
Ta      50.28500000      42.37410432       1.59500000
S       51.95000000      43.33539252       3.19000000
S       50.28500000      44.29668072       0.00000000
Ta      48.62000000      45.25796892       1.59500000
S       50.28500000      46.21925712       3.19000000
S       48.62000000      47.18054532       0.00000000
Ta      46.95500000      48.14183351       1.59500000
S       48.62000000      49.10312171       3.19000000
S       46.95500000      50.06440991       0.00000000
Ta      45.29000000      51.02569811       1.59500000
S       46.95500000      51.98698631       3.19000000
S       45.29000000      52.94827450       0.00000000
Ta      43.62500000      53.90956270       1.59500000
S       45.29000000      54.87085090       3.19000000
S       43.62500000      55.83213910       0.00000000
Ta      41.96000000      56.79342730       1.59500000
S       43.62500000      57.75471550       3.19000000
S       41.96000000      58.71600369       0.00000000
Ta      76.92500000       2.00000000       1.59500000
S       78.59000000       2.96128820       3.19000000
S       76.92500000       3.92257640       0.00000000
Ta      75.26000000       4.88386459       1.59500000
S       76.92500000       5.84515279       3.19000000
S       75.26000000       6.80644099       0.00000000
Ta      73.59500000       7.76772919       1.59500000
S       75.26000000       8.72901739       3.19000000
S       73.59500000       9.69030559       0.00000000
Ta      71.93000000      10.65159378       1.59500000
S       73.59500000      11.61288198       3.19000000
S       71.93000000      12.57417018       0.00000000
Ta      70.26500000      13.53545838       1.59500000
S       71.93000000      14.49674658       3.19000000
S       70.26500000      15.45803477       0.00000000
Ta      68.60000000      16.41932297       1.59500000
S       70.26500000      17.38061117       3.19000000
S       68.60000000      18.34189937       0.00000000
Ta      66.93500000      19.30318757       1.59500000
S       68.60000000      20.26447577       3.19000000
S       66.93500000      21.22576396       0.00000000
Ta      65.27000000      22.18705216       1.59500000
S       66.93500000      23.14834036       3.19000000
S       65.27000000      24.10962856       0.00000000
Ta      63.60500000      25.07091676       1.59500000
S       65.27000000      26.03220496       3.19000000
S       63.60500000      26.99349315       0.00000000
Ta      61.94000000      27.95478135       1.59500000
S       63.60500000      28.91606955       3.19000000
S       61.94000000      29.87735775       0.00000000
Ta      60.27500000      30.83864595       1.59500000
S       61.94000000      31.79993414       3.19000000
S       60.27500000      32.76122234       0.00000000
Ta      58.61000000      33.72251054       1.59500000
S       60.27500000      34.68379874       3.19000000
S       58.61000000      35.64508694       0.00000000
Ta      56.94500000      36.60637514       1.59500000
S       58.61000000      37.56766333       3.19000000
S       56.94500000      38.52895153       0.00000000
Ta      55.28000000      39.49023973       1.59500000
S       56.94500000      40.45152793       3.19000000
S       55.28000000      41.41281613       0.00000000
Ta      53.61500000      42.37410432       1.59500000
S       55.28000000      43.33539252       3.19000000
S       53.61500000      44.29668072       0.00000000
Ta      51.95000000      45.25796892       1.59500000
S       53.61500000      46.21925712       3.19000000
S       51.95000000      47.18054532       0.00000000
Ta      50.28500000      48.14183351       1.59500000
S       51.95000000      49.10312171       3.19000000
S       50.28500000      50.06440991       0.00000000
Ta      48.62000000      51.02569811       1.59500000
S       50.28500000      51.98698631       3.19000000
S       48.62000000      52.94827450       0.00000000
Ta      46.95500000      53.90956270       1.59500000
S       48.62000000      54.87085090       3.19000000
S       46.95500000      55.83213910       0.00000000
Ta      45.29000000      56.79342730       1.59500000
S       46.95500000      57.75471550       3.19000000
S       45.29000000      58.71600369       0.00000000
Ta      80.25500000       2.00000000       1.59500000
S       81.92000000       2.96128820       3.19000000
S       80.25500000       3.92257640       0.00000000
Ta      78.59000000       4.88386459       1.59500000
S       80.25500000       5.84515279       3.19000000
S       78.59000000       6.80644099       0.00000000
Ta      76.92500000       7.76772919       1.59500000
S       78.59000000       8.72901739       3.19000000
S       76.92500000       9.69030559       0.00000000
Ta      75.26000000      10.65159378       1.59500000
S       76.92500000      11.61288198       3.19000000
S       75.26000000      12.57417018       0.00000000
Ta      73.59500000      13.53545838       1.59500000
S       75.26000000      14.49674658       3.19000000
S       73.59500000      15.45803477       0.00000000
Ta      71.93000000      16.41932297       1.59500000
S       73.59500000      17.38061117       3.19000000
S       71.93000000      18.34189937       0.00000000
Ta      70.26500000      19.30318757       1.59500000
S       71.93000000      20.26447577       3.19000000
S       70.26500000      21.22576396       0.00000000
Ta      68.60000000      22.18705216       1.59500000
S       70.26500000      23.14834036       3.19000000
S       68.60000000      24.10962856       0.00000000
Ta      66.93500000      25.07091676       1.59500000
S       68.60000000      26.03220496       3.19000000
S       66.93500000      26.99349315       0.00000000
Ta      65.27000000      27.95478135       1.59500000
S       66.93500000      28.91606955       3.19000000
S       65.27000000      29.87735775       0.00000000
Ta      63.60500000      30.83864595       1.59500000
S       65.27000000      31.79993414       3.19000000
S       63.60500000      32.76122234       0.00000000
Ta      61.94000000      33.72251054       1.59500000
S       63.60500000      34.68379874       3.19000000
S       61.94000000      35.64508694       0.00000000
Ta      60.27500000      36.60637514       1.59500000
S       61.94000000      37.56766333       3.19000000
S       60.27500000      38.52895153       0.00000000
Ta      58.61000000      39.49023973       1.59500000
S       60.27500000      40.45152793       3.19000000
S       58.61000000      41.41281613       0.00000000
Ta      56.94500000      42.37410432       1.59500000
S       58.61000000      43.33539252       3.19000000
S       56.94500000      44.29668072       0.00000000
Ta      55.28000000      45.25796892       1.59500000
S       56.94500000      46.21925712       3.19000000
S       55.28000000      47.18054532       0.00000000
Ta      53.61500000      48.14183351       1.59500000
S       55.28000000      49.10312171       3.19000000
S       53.61500000      50.06440991       0.00000000
Ta      51.95000000      51.02569811       1.59500000
S       53.61500000      51.98698631       3.19000000
S       51.95000000      52.94827450       0.00000000
Ta      50.28500000      53.90956270       1.59500000
S       51.95000000      54.87085090       3.19000000
S       50.28500000      55.83213910       0.00000000
Ta      48.62000000      56.79342730       1.59500000
S       50.28500000      57.75471550       3.19000000
S       48.62000000      58.71600369       0.00000000
Ta      83.58500000       2.00000000       1.59500000
S       85.25000000       2.96128820       3.19000000
S       83.58500000       3.92257640       0.00000000
Ta      81.92000000       4.88386459       1.59500000
S       83.58500000       5.84515279       3.19000000
S       81.92000000       6.80644099       0.00000000
Ta      80.25500000       7.76772919       1.59500000
S       81.92000000       8.72901739       3.19000000
S       80.25500000       9.69030559       0.00000000
Ta      78.59000000      10.65159378       1.59500000
S       80.25500000      11.61288198       3.19000000
S       78.59000000      12.57417018       0.00000000
Ta      76.92500000      13.53545838       1.59500000
S       78.59000000      14.49674658       3.19000000
S       76.92500000      15.45803477       0.00000000
Ta      75.26000000      16.41932297       1.59500000
S       76.92500000      17.38061117       3.19000000
S       75.26000000      18.34189937       0.00000000
Ta      73.59500000      19.30318757       1.59500000
S       75.26000000      20.26447577       3.19000000
S       73.59500000      21.22576396       0.00000000
Ta      71.93000000      22.18705216       1.59500000
S       73.59500000      23.14834036       3.19000000
S       71.93000000      24.10962856       0.00000000
Ta      70.26500000      25.07091676       1.59500000
S       71.93000000      26.03220496       3.19000000
S       70.26500000      26.99349315       0.00000000
Ta      68.60000000      27.95478135       1.59500000
S       70.26500000      28.91606955       3.19000000
S       68.60000000      29.87735775       0.00000000
Ta      66.93500000      30.83864595       1.59500000
S       68.60000000      31.79993414       3.19000000
S       66.93500000      32.76122234       0.00000000
Ta      65.27000000      33.72251054       1.59500000
S       66.93500000      34.68379874       3.19000000
S       65.27000000      35.64508694       0.00000000
Ta      63.60500000      36.60637514       1.59500000
S       65.27000000      37.56766333       3.19000000
S       63.60500000      38.52895153       0.00000000
Ta      61.94000000      39.49023973       1.59500000
S       63.60500000      40.45152793       3.19000000
S       61.94000000      41.41281613       0.00000000
Ta      60.27500000      42.37410432       1.59500000
S       61.94000000      43.33539252       3.19000000
S       60.27500000      44.29668072       0.00000000
Ta      58.61000000      45.25796892       1.59500000
S       60.27500000      46.21925712       3.19000000
S       58.61000000      47.18054532       0.00000000
Ta      56.94500000      48.14183351       1.59500000
S       58.61000000      49.10312171       3.19000000
S       56.94500000      50.06440991       0.00000000
Ta      55.28000000      51.02569811       1.59500000
S       56.94500000      51.98698631       3.19000000
S       55.28000000      52.94827450       0.00000000
Ta      53.61500000      53.90956270       1.59500000
S       55.28000000      54.87085090       3.19000000
S       53.61500000      55.83213910       0.00000000
Ta      51.95000000      56.79342730       1.59500000
S       53.61500000      57.75471550       3.19000000
S       51.95000000      58.71600369       0.00000000
Ta      86.91500000       2.00000000       1.59500000
S       88.58000000       2.96128820       3.19000000
S       86.91500000       3.92257640       0.00000000
Ta      85.25000000       4.88386459       1.59500000
S       86.91500000       5.84515279       3.19000000
S       85.25000000       6.80644099       0.00000000
Ta      83.58500000       7.76772919       1.59500000
S       85.25000000       8.72901739       3.19000000
S       83.58500000       9.69030559       0.00000000
Ta      81.92000000      10.65159378       1.59500000
S       83.58500000      11.61288198       3.19000000
S       81.92000000      12.57417018       0.00000000
Ta      80.25500000      13.53545838       1.59500000
S       81.92000000      14.49674658       3.19000000
S       80.25500000      15.45803477       0.00000000
Ta      78.59000000      16.41932297       1.59500000
S       80.25500000      17.38061117       3.19000000
S       78.59000000      18.34189937       0.00000000
Ta      76.92500000      19.30318757       1.59500000
S       78.59000000      20.26447577       3.19000000
S       76.92500000      21.22576396       0.00000000
Ta      75.26000000      22.18705216       1.59500000
S       76.92500000      23.14834036       3.19000000
S       75.26000000      24.10962856       0.00000000
Ta      73.59500000      25.07091676       1.59500000
S       75.26000000      26.03220496       3.19000000
S       73.59500000      26.99349315       0.00000000
Ta      71.93000000      27.95478135       1.59500000
S       73.59500000      28.91606955       3.19000000
S       71.93000000      29.87735775       0.00000000
Ta      70.26500000      30.83864595       1.59500000
S       71.93000000      31.79993414       3.19000000
S       70.26500000      32.76122234       0.00000000
Ta      68.60000000      33.72251054       1.59500000
S       70.26500000      34.68379874       3.19000000
S       68.60000000      35.64508694       0.00000000
Ta      66.93500000      36.60637514       1.59500000
S       68.60000000      37.56766333       3.19000000
S       66.93500000      38.52895153       0.00000000
Ta      65.27000000      39.49023973       1.59500000
S       66.93500000      40.45152793       3.19000000
S       65.27000000      41.41281613       0.00000000
Ta      63.60500000      42.37410432       1.59500000
S       65.27000000      43.33539252       3.19000000
S       63.60500000      44.29668072       0.00000000
Ta      61.94000000      45.25796892       1.59500000
S       63.60500000      46.21925712       3.19000000
S       61.94000000      47.18054532       0.00000000
Ta      60.27500000      48.14183351       1.59500000
S       61.94000000      49.10312171       3.19000000
S       60.27500000      50.06440991       0.00000000
Ta      58.61000000      51.02569811       1.59500000
S       60.27500000      51.98698631       3.19000000
S       58.61000000      52.94827450       0.00000000
Ta      56.94500000      53.90956270       1.59500000
S       58.61000000      54.87085090       3.19000000
S       56.94500000      55.83213910       0.00000000
Ta      55.28000000      56.79342730       1.59500000
S       56.94500000      57.75471550       3.19000000
S       55.28000000      58.71600369       0.00000000
Ta      90.24500000       2.00000000       1.59500000
S       91.91000000       2.96128820       3.19000000
S       90.24500000       3.92257640       0.00000000
Ta      88.58000000       4.88386459       1.59500000
S       90.24500000       5.84515279       3.19000000
S       88.58000000       6.80644099       0.00000000
Ta      86.91500000       7.76772919       1.59500000
S       88.58000000       8.72901739       3.19000000
S       86.91500000       9.69030559       0.00000000
Ta      85.25000000      10.65159378       1.59500000
S       86.91500000      11.61288198       3.19000000
S       85.25000000      12.57417018       0.00000000
Ta      83.58500000      13.53545838       1.59500000
S       85.25000000      14.49674658       3.19000000
S       83.58500000      15.45803477       0.00000000
Ta      81.92000000      16.41932297       1.59500000
S       83.58500000      17.38061117       3.19000000
S       81.92000000      18.34189937       0.00000000
Ta      80.25500000      19.30318757       1.59500000
S       81.92000000      20.26447577       3.19000000
S       80.25500000      21.22576396       0.00000000
Ta      78.59000000      22.18705216       1.59500000
S       80.25500000      23.14834036       3.19000000
S       78.59000000      24.10962856       0.00000000
Ta      76.92500000      25.07091676       1.59500000
S       78.59000000      26.03220496       3.19000000
S       76.92500000      26.99349315       0.00000000
Ta      75.26000000      27.95478135       1.59500000
S       76.92500000      28.91606955       3.19000000
S       75.26000000      29.87735775       0.00000000
Ta      73.59500000      30.83864595       1.59500000
S       75.26000000      31.79993414       3.19000000
S       73.59500000      32.76122234       0.00000000
Ta      71.93000000      33.72251054       1.59500000
S       73.59500000      34.68379874       3.19000000
S       71.93000000      35.64508694       0.00000000
Ta      70.26500000      36.60637514       1.59500000
S       71.93000000      37.56766333       3.19000000
S       70.26500000      38.52895153       0.00000000
Ta      68.60000000      39.49023973       1.59500000
S       70.26500000      40.45152793       3.19000000
S       68.60000000      41.41281613       0.00000000
Ta      66.93500000      42.37410432       1.59500000
S       68.60000000      43.33539252       3.19000000
S       66.93500000      44.29668072       0.00000000
Ta      65.27000000      45.25796892       1.59500000
S       66.93500000      46.21925712       3.19000000
S       65.27000000      47.18054532       0.00000000
Ta      63.60500000      48.14183351       1.59500000
S       65.27000000      49.10312171       3.19000000
S       63.60500000      50.06440991       0.00000000
Ta      61.94000000      51.02569811       1.59500000
S       63.60500000      51.98698631       3.19000000
S       61.94000000      52.94827450       0.00000000
Ta      60.27500000      53.90956270       1.59500000
S       61.94000000      54.87085090       3.19000000
S       60.27500000      55.83213910       0.00000000
Ta      58.61000000      56.79342730       1.59500000
S       60.27500000      57.75471550       3.19000000
S       58.61000000      58.71600369       0.00000000
Ta      93.57500000       2.00000000       1.59500000
S       95.24000000       2.96128820       3.19000000
S       93.57500000       3.92257640       0.00000000
Ta      91.91000000       4.88386459       1.59500000
S       93.57500000       5.84515279       3.19000000
S       91.91000000       6.80644099       0.00000000
Ta      90.24500000       7.76772919       1.59500000
S       91.91000000       8.72901739       3.19000000
S       90.24500000       9.69030559       0.00000000
Ta      88.58000000      10.65159378       1.59500000
S       90.24500000      11.61288198       3.19000000
S       88.58000000      12.57417018       0.00000000
Ta      86.91500000      13.53545838       1.59500000
S       88.58000000      14.49674658       3.19000000
S       86.91500000      15.45803477       0.00000000
Ta      85.25000000      16.41932297       1.59500000
S       86.91500000      17.38061117       3.19000000
S       85.25000000      18.34189937       0.00000000
Ta      83.58500000      19.30318757       1.59500000
S       85.25000000      20.26447577       3.19000000
S       83.58500000      21.22576396       0.00000000
Ta      81.92000000      22.18705216       1.59500000
S       83.58500000      23.14834036       3.19000000
S       81.92000000      24.10962856       0.00000000
Ta      80.25500000      25.07091676       1.59500000
S       81.92000000      26.03220496       3.19000000
S       80.25500000      26.99349315       0.00000000
Ta      78.59000000      27.95478135       1.59500000
S       80.25500000      28.91606955       3.19000000
S       78.59000000      29.87735775       0.00000000
Ta      76.92500000      30.83864595       1.59500000
S       78.59000000      31.79993414       3.19000000
S       76.92500000      32.76122234       0.00000000
Ta      75.26000000      33.72251054       1.59500000
S       76.92500000      34.68379874       3.19000000
S       75.26000000      35.64508694       0.00000000
Ta      73.59500000      36.60637514       1.59500000
S       75.26000000      37.56766333       3.19000000
S       73.59500000      38.52895153       0.00000000
Ta      71.93000000      39.49023973       1.59500000
S       73.59500000      40.45152793       3.19000000
S       71.93000000      41.41281613       0.00000000
Ta      70.26500000      42.37410432       1.59500000
S       71.93000000      43.33539252       3.19000000
S       70.26500000      44.29668072       0.00000000
Ta      68.60000000      45.25796892       1.59500000
S       70.26500000      46.21925712       3.19000000
S       68.60000000      47.18054532       0.00000000
Ta      66.93500000      48.14183351       1.59500000
S       68.60000000      49.10312171       3.19000000
S       66.93500000      50.06440991       0.00000000
Ta      65.27000000      51.02569811       1.59500000
S       66.93500000      51.98698631       3.19000000
S       65.27000000      52.94827450       0.00000000
Ta      63.60500000      53.90956270       1.59500000
S       65.27000000      54.87085090       3.19000000
S       63.60500000      55.83213910       0.00000000
Ta      61.94000000      56.79342730       1.59500000
S       63.60500000      57.75471550       3.19000000
S       61.94000000      58.71600369       0.00000000
Ta      96.90500000       2.00000000       1.59500000
S       98.57000000       2.96128820       3.19000000
S       96.90500000       3.92257640       0.00000000
Ta      95.24000000       4.88386459       1.59500000
S       96.90500000       5.84515279       3.19000000
S       95.24000000       6.80644099       0.00000000
Ta      93.57500000       7.76772919       1.59500000
S       95.24000000       8.72901739       3.19000000
S       93.57500000       9.69030559       0.00000000
Ta      91.91000000      10.65159378       1.59500000
S       93.57500000      11.61288198       3.19000000
S       91.91000000      12.57417018       0.00000000
Ta      90.24500000      13.53545838       1.59500000
S       91.91000000      14.49674658       3.19000000
S       90.24500000      15.45803477       0.00000000
Ta      88.58000000      16.41932297       1.59500000
S       90.24500000      17.38061117       3.19000000
S       88.58000000      18.34189937       0.00000000
Ta      86.91500000      19.30318757       1.59500000
S       88.58000000      20.26447577       3.19000000
S       86.91500000      21.22576396       0.00000000
Ta      85.25000000      22.18705216       1.59500000
S       86.91500000      23.14834036       3.19000000
S       85.25000000      24.10962856       0.00000000
Ta      83.58500000      25.07091676       1.59500000
S       85.25000000      26.03220496       3.19000000
S       83.58500000      26.99349315       0.00000000
Ta      81.92000000      27.95478135       1.59500000
S       83.58500000      28.91606955       3.19000000
S       81.92000000      29.87735775       0.00000000
Ta      80.25500000      30.83864595       1.59500000
S       81.92000000      31.79993414       3.19000000
S       80.25500000      32.76122234       0.00000000
Ta      78.59000000      33.72251054       1.59500000
S       80.25500000      34.68379874       3.19000000
S       78.59000000      35.64508694       0.00000000
Ta      76.92500000      36.60637514       1.59500000
S       78.59000000      37.56766333       3.19000000
S       76.92500000      38.52895153       0.00000000
Ta      75.26000000      39.49023973       1.59500000
S       76.92500000      40.45152793       3.19000000
S       75.26000000      41.41281613       0.00000000
Ta      73.59500000      42.37410432       1.59500000
S       75.26000000      43.33539252       3.19000000
S       73.59500000      44.29668072       0.00000000
Ta      71.93000000      45.25796892       1.59500000
S       73.59500000      46.21925712       3.19000000
S       71.93000000      47.18054532       0.00000000
Ta      70.26500000      48.14183351       1.59500000
S       71.93000000      49.10312171       3.19000000
S       70.26500000      50.06440991       0.00000000
Ta      68.60000000      51.02569811       1.59500000
S       70.26500000      51.98698631       3.19000000
S       68.60000000      52.94827450       0.00000000
Ta      66.93500000      53.90956270       1.59500000
S       68.60000000      54.87085090       3.19000000
S       66.93500000      55.83213910       0.00000000
Ta      65.27000000      56.79342730       1.59500000
S       66.93500000      57.75471550       3.19000000
S       65.27000000      58.71600369       0.00000000
